    1C
    1UUSER                                                              
    1UDATE              11.september.2015                               
    1UTIME              10:33:48                                        
    1UHOST                                                              
    1UPGM               CalculiX                                        
    1UDIR                                                               
    1UDBN                                                               
    1UMAT    1STEEL                                                     
    2C                           280                                     1
 -1         1 0.00000E+00 0.00000E+00 0.00000E+00
 -1         2 0.00000E+00 0.00000E+00 1.00000E+01
 -1         3 0.00000E+00 1.00000E+01 0.00000E+00
 -1         4 0.00000E+00 1.00000E+01 1.00000E+01
 -1         5 1.00000E+01 0.00000E+00 0.00000E+00
 -1         6 1.00000E+01 0.00000E+00 1.00000E+01
 -1         7 1.00000E+01 1.00000E+01 0.00000E+00
 -1         8 1.00000E+01 1.00000E+01 1.00000E+01
 -1         9 0.00000E+00 0.00000E+00 5.00000E+00
 -1        10 0.00000E+00 0.00000E+00 2.50000E+00
 -1        11 0.00000E+00 0.00000E+00 7.50000E+00
 -1        12 0.00000E+00 5.00000E+00 0.00000E+00
 -1        13 0.00000E+00 2.50000E+00 0.00000E+00
 -1        14 0.00000E+00 7.50000E+00 0.00000E+00
 -1        15 0.00000E+00 1.00000E+01 5.00000E+00
 -1        16 0.00000E+00 1.00000E+01 2.50000E+00
 -1        17 0.00000E+00 1.00000E+01 7.50000E+00
 -1        18 0.00000E+00 5.00000E+00 1.00000E+01
 -1        19 0.00000E+00 2.50000E+00 1.00000E+01
 -1        20 0.00000E+00 7.50000E+00 1.00000E+01
 -1        21 1.00000E+01 0.00000E+00 5.00000E+00
 -1        22 1.00000E+01 0.00000E+00 2.50000E+00
 -1        23 1.00000E+01 0.00000E+00 7.50000E+00
 -1        24 1.00000E+01 5.00000E+00 0.00000E+00
 -1        25 1.00000E+01 2.50000E+00 0.00000E+00
 -1        26 1.00000E+01 7.50000E+00 0.00000E+00
 -1        27 1.00000E+01 1.00000E+01 5.00000E+00
 -1        28 1.00000E+01 1.00000E+01 2.50000E+00
 -1        29 1.00000E+01 1.00000E+01 7.50000E+00
 -1        30 1.00000E+01 5.00000E+00 1.00000E+01
 -1        31 1.00000E+01 2.50000E+00 1.00000E+01
 -1        32 1.00000E+01 7.50000E+00 1.00000E+01
 -1        33 5.00000E+00 0.00000E+00 0.00000E+00
 -1        34 2.50000E+00 0.00000E+00 0.00000E+00
 -1        35 7.50000E+00 0.00000E+00 0.00000E+00
 -1        36 5.00000E+00 0.00000E+00 1.00000E+01
 -1        37 2.50000E+00 0.00000E+00 1.00000E+01
 -1        38 7.50000E+00 0.00000E+00 1.00000E+01
 -1        39 5.00000E+00 1.00000E+01 0.00000E+00
 -1        40 2.50000E+00 1.00000E+01 0.00000E+00
 -1        41 7.50000E+00 1.00000E+01 0.00000E+00
 -1        42 5.00000E+00 1.00000E+01 1.00000E+01
 -1        43 2.50000E+00 1.00000E+01 1.00000E+01
 -1        44 7.50000E+00 1.00000E+01 1.00000E+01
 -1        45 0.00000E+00 5.00000E+00 5.00000E+00
 -1        46 0.00000E+00 2.50000E+00 7.50000E+00
 -1        47 0.00000E+00 2.50000E+00 2.50000E+00
 -1        48 0.00000E+00 7.50000E+00 7.50000E+00
 -1        49 0.00000E+00 7.50000E+00 2.50000E+00
 -1        50 0.00000E+00 1.25000E+00 8.75000E+00
 -1        51 0.00000E+00 1.25000E+00 6.25000E+00
 -1        52 0.00000E+00 2.50000E+00 5.00000E+00
 -1        53 0.00000E+00 3.75000E+00 6.25000E+00
 -1        54 0.00000E+00 1.25000E+00 3.75000E+00
 -1        55 0.00000E+00 1.25000E+00 1.25000E+00
 -1        56 0.00000E+00 3.75000E+00 3.75000E+00
 -1        57 0.00000E+00 3.75000E+00 1.25000E+00
 -1        58 0.00000E+00 5.00000E+00 2.50000E+00
 -1        59 0.00000E+00 6.25000E+00 1.25000E+00
 -1        60 0.00000E+00 8.75000E+00 1.25000E+00
 -1        61 0.00000E+00 6.25000E+00 3.75000E+00
 -1        62 0.00000E+00 3.75000E+00 8.75000E+00
 -1        63 0.00000E+00 5.00000E+00 7.50000E+00
 -1        64 0.00000E+00 8.75000E+00 6.25000E+00
 -1        65 0.00000E+00 8.75000E+00 8.75000E+00
 -1        66 0.00000E+00 6.25000E+00 6.25000E+00
 -1        67 0.00000E+00 7.50000E+00 5.00000E+00
 -1        68 0.00000E+00 6.25000E+00 8.75000E+00
 -1        69 0.00000E+00 8.75000E+00 3.75000E+00
 -1        70 1.00000E+01 5.00000E+00 5.00000E+00
 -1        71 1.00000E+01 2.50000E+00 7.50000E+00
 -1        72 1.00000E+01 7.50000E+00 7.50000E+00
 -1        73 1.00000E+01 7.50000E+00 2.50000E+00
 -1        74 1.00000E+01 2.50000E+00 2.50000E+00
 -1        75 1.00000E+01 6.25000E+00 8.75000E+00
 -1        76 1.00000E+01 8.75000E+00 8.75000E+00
 -1        77 1.00000E+01 8.75000E+00 6.25000E+00
 -1        78 1.00000E+01 5.00000E+00 7.50000E+00
 -1        79 1.00000E+01 6.25000E+00 6.25000E+00
 -1        80 1.00000E+01 7.50000E+00 5.00000E+00
 -1        81 1.00000E+01 6.25000E+00 1.25000E+00
 -1        82 1.00000E+01 8.75000E+00 1.25000E+00
 -1        83 1.00000E+01 8.75000E+00 3.75000E+00
 -1        84 1.00000E+01 6.25000E+00 3.75000E+00
 -1        85 1.00000E+01 5.00000E+00 2.50000E+00
 -1        86 1.00000E+01 3.75000E+00 1.25000E+00
 -1        87 1.00000E+01 1.25000E+00 1.25000E+00
 -1        88 1.00000E+01 1.25000E+00 3.75000E+00
 -1        89 1.00000E+01 3.75000E+00 3.75000E+00
 -1        90 1.00000E+01 2.50000E+00 5.00000E+00
 -1        91 1.00000E+01 3.75000E+00 8.75000E+00
 -1        92 1.00000E+01 1.25000E+00 8.75000E+00
 -1        93 1.00000E+01 3.75000E+00 6.25000E+00
 -1        94 1.00000E+01 1.25000E+00 6.25000E+00
 -1        95 5.00000E+00 0.00000E+00 5.00000E+00
 -1        96 7.50000E+00 0.00000E+00 7.50000E+00
 -1        97 7.50000E+00 0.00000E+00 2.50000E+00
 -1        98 2.50000E+00 0.00000E+00 2.50000E+00
 -1        99 2.50000E+00 0.00000E+00 7.50000E+00
 -1       100 1.25000E+00 0.00000E+00 1.25000E+00
 -1       101 1.25000E+00 0.00000E+00 3.75000E+00
 -1       102 2.50000E+00 0.00000E+00 5.00000E+00
 -1       103 3.75000E+00 0.00000E+00 3.75000E+00
 -1       104 3.75000E+00 0.00000E+00 6.25000E+00
 -1       105 1.25000E+00 0.00000E+00 6.25000E+00
 -1       106 1.25000E+00 0.00000E+00 8.75000E+00
 -1       107 6.25000E+00 0.00000E+00 6.25000E+00
 -1       108 6.25000E+00 0.00000E+00 8.75000E+00
 -1       109 5.00000E+00 0.00000E+00 7.50000E+00
 -1       110 7.50000E+00 0.00000E+00 5.00000E+00
 -1       111 8.75000E+00 0.00000E+00 6.25000E+00
 -1       112 8.75000E+00 0.00000E+00 8.75000E+00
 -1       113 6.25000E+00 0.00000E+00 3.75000E+00
 -1       114 8.75000E+00 0.00000E+00 3.75000E+00
 -1       115 5.00000E+00 0.00000E+00 2.50000E+00
 -1       116 6.25000E+00 0.00000E+00 1.25000E+00
 -1       117 8.75000E+00 0.00000E+00 1.25000E+00
 -1       118 3.75000E+00 0.00000E+00 1.25000E+00
 -1       119 3.75000E+00 0.00000E+00 8.75000E+00
 -1       120 5.00000E+00 1.00000E+01 5.00000E+00
 -1       121 7.50000E+00 1.00000E+01 2.50000E+00
 -1       122 2.50000E+00 1.00000E+01 2.50000E+00
 -1       123 7.50000E+00 1.00000E+01 7.50000E+00
 -1       124 2.50000E+00 1.00000E+01 7.50000E+00
 -1       125 6.25000E+00 1.00000E+01 8.75000E+00
 -1       126 6.25000E+00 1.00000E+01 6.25000E+00
 -1       127 5.00000E+00 1.00000E+01 7.50000E+00
 -1       128 8.75000E+00 1.00000E+01 8.75000E+00
 -1       129 3.75000E+00 1.00000E+01 8.75000E+00
 -1       130 3.75000E+00 1.00000E+01 6.25000E+00
 -1       131 1.25000E+00 1.00000E+01 8.75000E+00
 -1       132 6.25000E+00 1.00000E+01 1.25000E+00
 -1       133 5.00000E+00 1.00000E+01 2.50000E+00
 -1       134 6.25000E+00 1.00000E+01 3.75000E+00
 -1       135 8.75000E+00 1.00000E+01 1.25000E+00
 -1       136 8.75000E+00 1.00000E+01 3.75000E+00
 -1       137 7.50000E+00 1.00000E+01 5.00000E+00
 -1       138 1.25000E+00 1.00000E+01 3.75000E+00
 -1       139 2.50000E+00 1.00000E+01 5.00000E+00
 -1       140 3.75000E+00 1.00000E+01 3.75000E+00
 -1       141 1.25000E+00 1.00000E+01 1.25000E+00
 -1       142 3.75000E+00 1.00000E+01 1.25000E+00
 -1       143 8.75000E+00 1.00000E+01 6.25000E+00
 -1       144 1.25000E+00 1.00000E+01 6.25000E+00
 -1       145 5.00000E+00 5.00000E+00 0.00000E+00
 -1       146 2.50000E+00 7.50000E+00 0.00000E+00
 -1       147 7.50000E+00 7.50000E+00 0.00000E+00
 -1       148 7.50000E+00 2.50000E+00 0.00000E+00
 -1       149 2.50000E+00 2.50000E+00 0.00000E+00
 -1       150 1.25000E+00 3.75000E+00 0.00000E+00
 -1       151 1.25000E+00 1.25000E+00 0.00000E+00
 -1       152 2.50000E+00 5.00000E+00 0.00000E+00
 -1       153 1.25000E+00 6.25000E+00 0.00000E+00
 -1       154 3.75000E+00 6.25000E+00 0.00000E+00
 -1       155 3.75000E+00 3.75000E+00 0.00000E+00
 -1       156 1.25000E+00 8.75000E+00 0.00000E+00
 -1       157 3.75000E+00 1.25000E+00 0.00000E+00
 -1       158 3.75000E+00 8.75000E+00 0.00000E+00
 -1       159 5.00000E+00 7.50000E+00 0.00000E+00
 -1       160 6.25000E+00 8.75000E+00 0.00000E+00
 -1       161 6.25000E+00 6.25000E+00 0.00000E+00
 -1       162 8.75000E+00 8.75000E+00 0.00000E+00
 -1       163 8.75000E+00 6.25000E+00 0.00000E+00
 -1       164 7.50000E+00 5.00000E+00 0.00000E+00
 -1       165 8.75000E+00 3.75000E+00 0.00000E+00
 -1       166 6.25000E+00 3.75000E+00 0.00000E+00
 -1       167 6.25000E+00 1.25000E+00 0.00000E+00
 -1       168 5.00000E+00 2.50000E+00 0.00000E+00
 -1       169 8.75000E+00 1.25000E+00 0.00000E+00
 -1       170 5.00000E+00 5.00000E+00 1.00000E+01
 -1       171 7.50000E+00 7.50000E+00 1.00000E+01
 -1       172 7.50000E+00 2.50000E+00 1.00000E+01
 -1       173 2.50000E+00 7.50000E+00 1.00000E+01
 -1       174 2.50000E+00 2.50000E+00 1.00000E+01
 -1       175 3.75000E+00 8.75000E+00 1.00000E+01
 -1       176 1.25000E+00 8.75000E+00 1.00000E+01
 -1       177 3.75000E+00 6.25000E+00 1.00000E+01
 -1       178 5.00000E+00 7.50000E+00 1.00000E+01
 -1       179 6.25000E+00 8.75000E+00 1.00000E+01
 -1       180 8.75000E+00 8.75000E+00 1.00000E+01
 -1       181 6.25000E+00 6.25000E+00 1.00000E+01
 -1       182 6.25000E+00 1.25000E+00 1.00000E+01
 -1       183 6.25000E+00 3.75000E+00 1.00000E+01
 -1       184 5.00000E+00 2.50000E+00 1.00000E+01
 -1       185 8.75000E+00 1.25000E+00 1.00000E+01
 -1       186 8.75000E+00 3.75000E+00 1.00000E+01
 -1       187 7.50000E+00 5.00000E+00 1.00000E+01
 -1       188 1.25000E+00 6.25000E+00 1.00000E+01
 -1       189 2.50000E+00 5.00000E+00 1.00000E+01
 -1       190 3.75000E+00 1.25000E+00 1.00000E+01
 -1       191 3.75000E+00 3.75000E+00 1.00000E+01
 -1       192 1.25000E+00 1.25000E+00 1.00000E+01
 -1       193 1.25000E+00 3.75000E+00 1.00000E+01
 -1       194 8.75000E+00 6.25000E+00 1.00000E+01
 -1       195 3.75000E+00 6.25000E+00 6.25000E+00
 -1       196 6.25000E+00 3.75000E+00 3.75000E+00
 -1       197 1.25000E+00 1.25000E+00 2.50000E+00
 -1       198 2.50000E+00 1.25000E+00 3.75000E+00
 -1       199 4.37500E+00 1.87500E+00 3.12500E+00
 -1       200 5.62500E+00 1.87500E+00 4.37500E+00
 -1       201 3.12500E+00 3.12500E+00 3.12500E+00
 -1       202 6.25000E+00 7.50000E+00 1.25000E+00
 -1       203 7.50000E+00 8.75000E+00 1.25000E+00
 -1       204 6.87500E+00 6.87500E+00 3.12500E+00
 -1       205 6.87500E+00 5.62500E+00 1.87500E+00
 -1       206 5.62500E+00 4.37500E+00 1.87500E+00
 -1       207 8.75000E+00 7.50000E+00 3.75000E+00
 -1       208 8.75000E+00 8.75000E+00 2.50000E+00
 -1       209 7.50000E+00 6.25000E+00 8.75000E+00
 -1       210 8.75000E+00 7.50000E+00 8.75000E+00
 -1       211 8.75000E+00 3.75000E+00 7.50000E+00
 -1       212 8.75000E+00 2.50000E+00 8.75000E+00
 -1       213 3.75000E+00 2.50000E+00 8.75000E+00
 -1       214 2.50000E+00 1.25000E+00 8.75000E+00
 -1       215 1.25000E+00 2.50000E+00 1.25000E+00
 -1       216 2.50000E+00 3.75000E+00 1.25000E+00
 -1       217 8.75000E+00 7.50000E+00 6.25000E+00
 -1       218 8.75000E+00 8.75000E+00 7.50000E+00
 -1       219 7.50000E+00 7.50000E+00 5.00000E+00
 -1       220 5.62500E+00 6.87500E+00 4.37500E+00
 -1       221 8.12500E+00 4.37500E+00 4.37500E+00
 -1       222 7.50000E+00 5.00000E+00 7.50000E+00
 -1       223 6.87500E+00 3.12500E+00 6.87500E+00
 -1       224 5.62500E+00 4.37500E+00 6.87500E+00
 -1       225 5.00000E+00 2.50000E+00 7.50000E+00
 -1       226 3.12500E+00 3.12500E+00 6.87500E+00
 -1       227 4.37500E+00 3.12500E+00 5.62500E+00
 -1       228 4.37500E+00 5.62500E+00 8.12500E+00
 -1       229 2.50000E+00 5.00000E+00 2.50000E+00
 -1       230 3.12500E+00 4.37500E+00 4.37500E+00
 -1       231 5.62500E+00 8.12500E+00 6.87500E+00
 -1       232 6.87500E+00 5.62500E+00 5.62500E+00
 -1       233 4.37500E+00 8.12500E+00 5.62500E+00
 -1       234 2.50000E+00 2.50000E+00 5.00000E+00
 -1       235 5.00000E+00 7.50000E+00 2.50000E+00
 -1       236 4.37500E+00 5.62500E+00 3.12500E+00
 -1       237 1.87500E+00 5.62500E+00 5.62500E+00
 -1       238 5.00000E+00 5.00000E+00 5.00000E+00
 -1       239 8.75000E+00 2.50000E+00 1.25000E+00
 -1       240 8.12500E+00 4.37500E+00 1.87500E+00
 -1       241 8.12500E+00 3.12500E+00 3.12500E+00
 -1       242 6.87500E+00 3.12500E+00 1.87500E+00
 -1       243 8.75000E+00 1.25000E+00 2.50000E+00
 -1       244 8.12500E+00 1.87500E+00 4.37500E+00
 -1       245 6.87500E+00 1.87500E+00 3.12500E+00
 -1       246 7.50000E+00 1.25000E+00 1.25000E+00
 -1       247 5.62500E+00 1.87500E+00 1.87500E+00
 -1       248 2.50000E+00 8.75000E+00 8.75000E+00
 -1       249 3.12500E+00 8.12500E+00 6.87500E+00
 -1       250 3.12500E+00 6.87500E+00 8.12500E+00
 -1       251 4.37500E+00 8.12500E+00 8.12500E+00
 -1       252 1.25000E+00 8.75000E+00 7.50000E+00
 -1       253 1.87500E+00 8.12500E+00 5.62500E+00
 -1       254 1.87500E+00 6.87500E+00 6.87500E+00
 -1       255 1.25000E+00 7.50000E+00 8.75000E+00
 -1       256 1.87500E+00 5.62500E+00 8.12500E+00
 -1       257 3.12500E+00 8.12500E+00 4.37500E+00
 -1       258 6.87500E+00 1.87500E+00 5.62500E+00
 -1       259 1.87500E+00 4.37500E+00 6.87500E+00
 -1       260 1.25000E+00 8.75000E+00 2.50000E+00
 -1       261 1.25000E+00 7.50000E+00 1.25000E+00
 -1       262 8.75000E+00 7.50000E+00 1.25000E+00
 -1       263 7.50000E+00 1.25000E+00 8.75000E+00
 -1       264 1.25000E+00 2.50000E+00 8.75000E+00
 -1       265 2.50000E+00 1.25000E+00 1.25000E+00
 -1       266 1.25000E+00 1.25000E+00 7.50000E+00
 -1       267 7.50000E+00 8.75000E+00 8.75000E+00
 -1       268 2.50000E+00 8.75000E+00 1.25000E+00
 -1       269 8.75000E+00 1.25000E+00 7.50000E+00
 -1       270 8.75000E+00 6.25000E+00 2.50000E+00
 -1       271 1.25000E+00 6.25000E+00 2.50000E+00
 -1       272 3.12500E+00 6.87500E+00 3.12500E+00
 -1       273 3.75000E+00 2.50000E+00 1.25000E+00
 -1       274 6.25000E+00 1.25000E+00 7.50000E+00
 -1       275 8.75000E+00 2.50000E+00 6.25000E+00
 -1       276 1.25000E+00 2.50000E+00 6.25000E+00
 -1       277 6.25000E+00 7.50000E+00 8.75000E+00
 -1       278 3.75000E+00 8.75000E+00 2.50000E+00
 -1       279 2.50000E+00 3.75000E+00 8.75000E+00
 -1       280 1.25000E+00 7.50000E+00 3.75000E+00
 -3
    3C                           129                                     1
 -1       633    6    0    1
 -2        95        98        47       196       103       197       198       200       199       201
 -1       634    6    0    1
 -2       147       121       145       196       203       202       161       205       204       206
 -1       635    6    0    1
 -2        73        70        27       121        84        80        83       208       207       136
 -1       636    6    0    1
 -2        72       170        30       171       209       187        75       210       181       194
 -1       637    6    0    1
 -2         9        98        47        95       101       197        54       102       103       198
 -1       638    6    0    1
 -2       172        70        30        71       211        78       186       212        93        91
 -1       639    6    0    1
 -2       170        99        36       174       213       119       184       191       214       190
 -1       640    6    0    1
 -2        12        47       149       145        57       215       150       152       216       155
 -1       641    6    0    1
 -2        70        27       123        72        80       143       217        79        77       218
 -1       642    6    0    1
 -2        39       147       121       145       160       203       132       159       161       202
 -1       643    6    0    1
 -2        70       120       121       196       219       134       207       221       220       204
 -1       644    6    0    1
 -2        70       172       170       196       211       183       222       221       223       224
 -1       645    6    0    1
 -2        95        99       170       195       104       213       225       227       226       228
 -1       646    6    0    1
 -2       145        45        47       196       229        56       216       206       230       201
 -1       647    6    0    1
 -2        70       123       120       195       217       126       219       232       231       233
 -1       648    6    0    1
 -2        47        45        95       196        56       234       198       201       230       200
 -1       649    6    0    1
 -2       121       120       145       196       134       235       202       204       220       206
 -1       650    6    0    1
 -2       145        39       120       121       159       133       235       202       132       134
 -1       651    6    0    1
 -2        70       120        27       121       219       137        80       207       134       136
 -1       652    6    0    1
 -2         9        47        45        95        54        56        52       102       198       234
 -1       653    6    0    1
 -2        70        27       120       123        80       137       219       217       143       126
 -1       654    6    0    1
 -2        45        47        12       145        56        57        58       229       216       152
 -1       655    6    0    1
 -2       170        95        36        99       225       109       184       213       104       119
 -1       656    6    0    1
 -2       195        45       145       196       237       229       236       238       230       206
 -1       657    6    0    1
 -2        95        45       195       196       234       237       227       200       230       238
 -1       658    6    0    1
 -2       170        95       195       196       225       227       228       224       200       238
 -1       659    6    0    1
 -2        70       170       195       196       222       228       232       221       224       238
 -1       660    6    0    1
 -2       195       120        70       196       233       219       232       238       220       221
 -1       661    6    0    1
 -2       145       120       195       196       235       233       236       206       220       238
 -1       662    6    0    1
 -2        74        24       148       196        86       165       239       241       240       242
 -1       663    6    0    1
 -2        21        74        97       196        88       243       114       244       241       245
 -1       664    6    0    1
 -2       148        33        97       196       167       116       246       242       247       245
 -1       665    6    0    1
 -2       173       124        42       195       248       129       175       250       249       251
 -1       666    6    0    1
 -2        48        15       124       195        64       144       252       254       253       249
 -1       667    6    0    1
 -2        18        48       173       195        68       255       188       256       254       250
 -1       668    6    0    1
 -2        74        70        24       196        89        85        86       241       221       240
 -1       669    6    0    1
 -2       170        18       173       195       189       188       177       228       256       250
 -1       670    6    0    1
 -2        70        74        21       196        89        88        90       221       241       244
 -1       671    6    0    1
 -2       120       123        42       195       126       125       127       233       231       251
 -1       672    6    0    1
 -2       170       173        42       195       177       175       178       228       250       251
 -1       673    6    0    1
 -2        42       124       120       195       129       130       127       251       249       233
 -1       674    6    0    1
 -2        15       122       120       195       138       140       139       253       257       233
 -1       675    6    0    1
 -2       124        15       120       195       144       139       130       249       253       233
 -1       676    6    0    1
 -2        15        48        45       195        64        66        67       253       254       237
 -1       677    6    0    1
 -2        24       147       145       196       163       161       164       240       205       206
 -1       678    6    0    1
 -2        95        97        33       196       113       116       115       200       245       247
 -1       679    6    0    1
 -2        33        98        95       196       118       103       115       247       199       200
 -1       680    6    0    1
 -2        95        96        21       196       107       111       110       200       258       244
 -1       681    6    0    1
 -2        97        95        21       196       113       110       114       245       200       244
 -1       682    6    0    1
 -2       145        33       148       196       168       167       166       206       247       242
 -1       683    6    0    1
 -2        24       145       148       196       164       166       165       240       206       242
 -1       684    6    0    1
 -2        18        45        48       195        63        66        68       256       237       254
 -1       685    6    0    1
 -2        45        18        46       195        63        62        53       237       256       259
 -1       686    6    0    1
 -2        48       124       173       195       252       248       255       254       249       250
 -1       687    6    0    1
 -2       148        97        74       196       246       243       239       242       245       241
 -1       688    6    0    1
 -2        74        24         5       148        86        25        87       239       165       169
 -1       689    6    0    1
 -2         3        49       122        15        60       260       141        16        69       138
 -1       690    6    0    1
 -2       146        12        49         3       153        59       261       156        14        60
 -1       691    6    0    1
 -2        15       124         4        48       144       131        17        64       252        65
 -1       692    6    0    1
 -2       149         1        47        12       151        55       215       150        13        57
 -1       693    6    0    1
 -2       147         7        73        24       162        82       262       163        26        81
 -1       694    6    0    1
 -2        36       172         6        96       182       185        38       108       263       112
 -1       695    6    0    1
 -2        98        47         1         9       197        55       100       101        54        10
 -1       696    6    0    1
 -2         2       174        46        18       192       264        50        19       193        62
 -1       697    6    0    1
 -2         1       149        98        33       151       265       100        34       157       118
 -1       698    6    0    1
 -2        48       173         4        18       255       176        65        68       188        20
 -1       699    6    0    1
 -2        30        72       171         8        75       210       194        32        76       180
 -1       700    6    0    1
 -2        97        21         5        74       114        22       117       243        88        87
 -1       701    6    0    1
 -2         9        46         2        99        51        50        11       105       266       106
 -1       702    6    0    1
 -2         8       123       171        42       128       267       180        44       125       179
 -1       703    6    0    1
 -2        97         5        33       148       117        35       116       246       169       167
 -1       704    6    0    1
 -2        99       174         2        36       214       192       106       119       190        37
 -1       705    6    0    1
 -2       173       124         4        42       248       131       176       175       129        43
 -1       706    6    0    1
 -2         3       122       146        39       141       268       156        40       142       158
 -1       707    6    0    1
 -2         8        72       123        27        76       218       128        29        77       143
 -1       708    6    0    1
 -2        71       172         6        30       212       185        92        91       186        31
 -1       709    6    0    1
 -2       147       121         7        39       203       135       162       160       132        41
 -1       710    6    0    1
 -2        73       121        27         7       208       136        83        82       135        28
 -1       711    6    0    1
 -2        71         6        96        21        92       112       269        94        23       111
 -1       712    6    0    1
 -2       146        49       122         3       261       260       268       156        60       141
 -1       713    6    0    1
 -2         2        46       174        99        50       264       192       106       266       214
 -1       714    6    0    1
 -2       123       171        72         8       267       210       218       128       180        76
 -1       715    6    0    1
 -2         7        73       121       147        82       208       135       162       262       203
 -1       716    6    0    1
 -2       173         4       124        48       176       131       248       255        65       252
 -1       717    6    0    1
 -2        96       172         6        71       263       185       112       269       212        92
 -1       718    6    0    1
 -2        74         5        97       148        87       117       243       239       169       246
 -1       719    6    0    1
 -2         1        98       149        47       100       265       151        55       197       215
 -1       720    6    0    1
 -2       147       121        70        73       203       207       270       262       208        84
 -1       721    6    0    1
 -2       121       147        70       196       203       270       207       204       205       221
 -1       722    6    0    1
 -2       147        70        24        73       270        85       163       262        84        81
 -1       723    6    0    1
 -2        70       147        24       196       270       163        85       221       205       240
 -1       724    6    0    1
 -2       146       195        45       145       272       237       271       154       236       229
 -1       725    6    0    1
 -2        12        45       146        49        58       271       153        59        61       261
 -1       726    6    0    1
 -2       146        45        12       145       271        58       153       154       229       152
 -1       727    6    0    1
 -2        98        47       145       149       197       216       273       265       215       155
 -1       728    6    0    1
 -2       145        47        98       196       216       197       273       206       201       199
 -1       729    6    0    1
 -2        33        98       145       149       118       273       168       157       265       155
 -1       730    6    0    1
 -2       145        98        33       196       273       118       168       206       199       247
 -1       731    6    0    1
 -2        95       196       172        96       200       223       274       107       258       263
 -1       732    6    0    1
 -2       172       196        95       170       223       200       274       183       224       225
 -1       733    6    0    1
 -2        36        95       172        96       109       274       182       108       107       263
 -1       734    6    0    1
 -2       172        95        36       170       274       109       182       183       225       184
 -1       735    6    0    1
 -2        96        70       172        71       275       211       263       269        93       212
 -1       736    6    0    1
 -2       172        70        96       196       211       275       263       223       221       258
 -1       737    6    0    1
 -2        96        21        70        71       111        90       275       269        94        93
 -1       738    6    0    1
 -2        70        21        96       196        90       111       275       221       244       258
 -1       739    6    0    1
 -2        45       195        99        95       237       226       276       234       227       104
 -1       740    6    0    1
 -2        99       195        45        46       226       237       276       266       259        53
 -1       741    6    0    1
 -2         9        45        99        95        52       276       105       102       234       104
 -1       742    6    0    1
 -2        99        45         9        46       276        52       105       266        53        51
 -1       743    6    0    1
 -2       123       170        72       171       277       209       218       267       181       210
 -1       744    6    0    1
 -2        42       170       123       171       178       277       125       179       181       267
 -1       745    6    0    1
 -2       170        42       123       195       178       125       277       228       251       231
 -1       746    6    0    1
 -2       170        70       123        72       222       217       277       209        79       218
 -1       747    6    0    1
 -2       123        70       170       195       217       222       277       231       232       228
 -1       748    6    0    1
 -2       120       146       195       122       278       272       233       140       268       257
 -1       749    6    0    1
 -2       146       120       195       145       278       233       272       154       235       236
 -1       750    6    0    1
 -2        39       146       120       122       158       278       133       142       268       140
 -1       751    6    0    1
 -2       146        39       120       145       158       133       278       154       159       235
 -1       752    6    0    1
 -2        46        99       170       174       266       213       279       264       214       191
 -1       753    6    0    1
 -2       170        99        46       195       213       266       279       228       226       259
 -1       754    6    0    1
 -2        18        46       170       174        62       279       189       193       264       191
 -1       755    6    0    1
 -2       170        46        18       195       279        62       189       228       259       256
 -1       756    6    0    1
 -2        70        30       170       172        78       187       222       211       186       183
 -1       757    6    0    1
 -2       170        30        70        72       187        78       222       209        75        79
 -1       758    6    0    1
 -2       122        45       146       195       280       271       268       257       237       272
 -1       759    6    0    1
 -2       146        45       122        49       271       280       268       261        61       260
 -1       760    6    0    1
 -2       122        15        45       195       138        67       280       257       253       237
 -1       761    6    0    1
 -2        45        15       122        49        67       138       280        61        69       260
 -3
    1PSTEP                         1           1           1          
  100CL  101 1.000000000         280                     0    1           1
 -4  DISP        4    1
 -5  D1          1    2    1    0
 -5  D2          1    2    2    0
 -5  D3          1    2    3    0
 -5  ALL         1    2    0    0    1ALL
 -1         1 0.00000E+00 0.00000E+00 0.00000E+00
 -1         2 0.00000E+00 0.00000E+00 0.00000E+00
 -1         3 0.00000E+00 0.00000E+00 0.00000E+00
 -1         4 0.00000E+00 0.00000E+00 0.00000E+00
 -1         5-5.00000E-05-1.54160E-19-1.89735E-19
 -1         6-5.00000E-05-1.55015E-19-1.75041E-19
 -1         7-5.00000E-05-2.69356E-19-2.25685E-19
 -1         8-5.00000E-05-3.08026E-19-3.37119E-19
 -1         9 0.00000E+00 0.00000E+00 0.00000E+00
 -1        10 0.00000E+00 0.00000E+00 0.00000E+00
 -1        11 0.00000E+00 0.00000E+00 0.00000E+00
 -1        12 0.00000E+00 0.00000E+00 0.00000E+00
 -1        13 0.00000E+00 0.00000E+00 0.00000E+00
 -1        14 0.00000E+00 0.00000E+00 0.00000E+00
 -1        15 0.00000E+00 0.00000E+00 0.00000E+00
 -1        16 0.00000E+00 0.00000E+00 0.00000E+00
 -1        17 0.00000E+00 0.00000E+00 0.00000E+00
 -1        18 0.00000E+00 0.00000E+00 0.00000E+00
 -1        19 0.00000E+00 0.00000E+00 0.00000E+00
 -1        20 0.00000E+00 0.00000E+00 0.00000E+00
 -1        21-5.00000E-05-2.34035E-19-1.77896E-19
 -1        22-5.00000E-05-1.87721E-19-2.00747E-19
 -1        23-5.00000E-05-2.21374E-19-1.67459E-19
 -1        24-5.00000E-05-2.21515E-19-2.25311E-19
 -1        25-5.00000E-05-1.84516E-19-2.08768E-19
 -1        26-5.00000E-05-2.20932E-19-2.18852E-19
 -1        27-5.00000E-05-2.15252E-19-2.89208E-19
 -1        28-5.00000E-05-2.21461E-19-2.55656E-19
 -1        29-5.00000E-05-2.70615E-19-3.08955E-19
 -1        30-5.00000E-05-1.90671E-19-2.99903E-19
 -1        31-5.00000E-05-1.64443E-19-2.27428E-19
 -1        32-5.00000E-05-2.27970E-19-3.21449E-19
 -1        33-2.50000E-05-8.99762E-20-6.87420E-20
 -1        34-1.25000E-05-3.14064E-20-1.56213E-20
 -1        35-3.75000E-05-1.43149E-19-1.41812E-19
 -1        36-2.50000E-05-4.25634E-20-5.86306E-20
 -1        37-1.25000E-05-9.10560E-21-1.76818E-20
 -1        38-3.75000E-05-1.02803E-19-9.52912E-20
 -1        39-2.50000E-05-7.62140E-20-9.27501E-20
 -1        40-1.25000E-05-2.31544E-20-2.04828E-20
 -1        41-3.75000E-05-1.38278E-19-1.80742E-19
 -1        42-2.50000E-05-4.67405E-20-8.41660E-20
 -1        43-1.25000E-05-8.97326E-21-2.82697E-20
 -1        44-3.75000E-05-1.13502E-19-1.74310E-19
 -1        45 0.00000E+00 0.00000E+00 0.00000E+00
 -1        46 0.00000E+00 0.00000E+00 0.00000E+00
 -1        47 0.00000E+00 0.00000E+00 0.00000E+00
 -1        48 0.00000E+00 0.00000E+00 0.00000E+00
 -1        49 0.00000E+00 0.00000E+00 0.00000E+00
 -1        50 0.00000E+00 0.00000E+00 0.00000E+00
 -1        51 0.00000E+00 0.00000E+00 0.00000E+00
 -1        52 0.00000E+00 0.00000E+00 0.00000E+00
 -1        53 0.00000E+00 0.00000E+00 0.00000E+00
 -1        54 0.00000E+00 0.00000E+00 0.00000E+00
 -1        55 0.00000E+00 0.00000E+00 0.00000E+00
 -1        56 0.00000E+00 0.00000E+00 0.00000E+00
 -1        57 0.00000E+00 0.00000E+00 0.00000E+00
 -1        58 0.00000E+00 0.00000E+00 0.00000E+00
 -1        59 0.00000E+00 0.00000E+00 0.00000E+00
 -1        60 0.00000E+00 0.00000E+00 0.00000E+00
 -1        61 0.00000E+00 0.00000E+00 0.00000E+00
 -1        62 0.00000E+00 0.00000E+00 0.00000E+00
 -1        63 0.00000E+00 0.00000E+00 0.00000E+00
 -1        64 0.00000E+00 0.00000E+00 0.00000E+00
 -1        65 0.00000E+00 0.00000E+00 0.00000E+00
 -1        66 0.00000E+00 0.00000E+00 0.00000E+00
 -1        67 0.00000E+00 0.00000E+00 0.00000E+00
 -1        68 0.00000E+00 0.00000E+00 0.00000E+00
 -1        69 0.00000E+00 0.00000E+00 0.00000E+00
 -1        70-5.00000E-05-1.93229E-19-2.38652E-19
 -1        71-5.00000E-05-1.83664E-19-1.98047E-19
 -1        72-5.00000E-05-2.36957E-19-2.95614E-19
 -1        73-5.00000E-05-1.97782E-19-2.48581E-19
 -1        74-5.00000E-05-1.86067E-19-2.11970E-19
 -1        75-5.00000E-05-2.17202E-19-2.99732E-19
 -1        76-5.00000E-05-2.67662E-19-3.24141E-19
 -1        77-5.00000E-05-2.33358E-19-3.03314E-19
 -1        78-5.00000E-05-2.03255E-19-2.68540E-19
 -1        79-5.00000E-05-2.08794E-19-2.65656E-19
 -1        80-5.00000E-05-2.03232E-19-2.70936E-19
 -1        81-5.00000E-05-2.06186E-19-2.35687E-19
 -1        82-5.00000E-05-2.30106E-19-2.30420E-19
 -1        83-5.00000E-05-2.07040E-19-2.55670E-19
 -1        84-5.00000E-05-1.99509E-19-2.33569E-19
 -1        85-5.00000E-05-1.98901E-19-2.29546E-19
 -1        86-5.00000E-05-1.94788E-19-2.20017E-19
 -1        87-5.00000E-05-1.70633E-19-2.02441E-19
 -1        88-5.00000E-05-2.09771E-19-1.90371E-19
 -1        89-5.00000E-05-1.77908E-19-2.18528E-19
 -1        90-5.00000E-05-1.99927E-19-1.95122E-19
 -1        91-5.00000E-05-1.79995E-19-2.56651E-19
 -1        92-5.00000E-05-1.88775E-19-1.83164E-19
 -1        93-5.00000E-05-1.85500E-19-2.21381E-19
 -1        94-5.00000E-05-2.15967E-19-1.85484E-19
 -1        95-2.50000E-05-7.30566E-20-6.58729E-20
 -1        96-3.75000E-05-1.13926E-19-1.04764E-19
 -1        97-3.75000E-05-1.38490E-19-1.41455E-19
 -1        98-1.25000E-05-2.82962E-20-1.75342E-20
 -1        99-1.25000E-05-2.39411E-20-1.81529E-20
 -1       100-6.25000E-06-1.08195E-20-3.70577E-21
 -1       101-6.25000E-06-9.47618E-21-3.49401E-21
 -1       102-1.25000E-05-2.28269E-20-1.59348E-20
 -1       103-1.87500E-05-5.18761E-20-3.84209E-20
 -1       104-1.87500E-05-4.84516E-20-3.67798E-20
 -1       105-6.25000E-06-6.71999E-21-4.12929E-21
 -1       106-6.25000E-06-4.32534E-21-4.79765E-21
 -1       107-3.12500E-05-8.44915E-20-9.14585E-20
 -1       108-3.12500E-05-7.94093E-20-7.66988E-20
 -1       109-2.50000E-05-5.93572E-20-5.52160E-20
 -1       110-3.75000E-05-1.27909E-19-1.24302E-19
 -1       111-4.37500E-05-1.73609E-19-1.45054E-19
 -1       112-4.37500E-05-1.46960E-19-1.30486E-19
 -1       113-3.12500E-05-9.93148E-20-1.02440E-19
 -1       114-4.37500E-05-1.74064E-19-1.58633E-19
 -1       115-2.50000E-05-7.78212E-20-6.37903E-20
 -1       116-3.12500E-05-1.09802E-19-1.05247E-19
 -1       117-4.37500E-05-1.71030E-19-1.75411E-19
 -1       118-1.87500E-05-5.75982E-20-3.80174E-20
 -1       119-1.87500E-05-3.33596E-20-3.62471E-20
 -1       120-2.50000E-05-6.27045E-20-7.87951E-20
 -1       121-3.75000E-05-1.24090E-19-1.84692E-19
 -1       122-1.25000E-05-1.73989E-20-2.54817E-20
 -1       123-3.75000E-05-1.12336E-19-1.68189E-19
 -1       124-1.25000E-05-1.51407E-20-2.27526E-20
 -1       125-3.12500E-05-7.09709E-20-1.26491E-19
 -1       126-3.12500E-05-8.17628E-20-1.19389E-19
 -1       127-2.50000E-05-4.74611E-20-8.27975E-20
 -1       128-4.37500E-05-1.79852E-19-2.37593E-19
 -1       129-1.87500E-05-2.62580E-20-5.20005E-20
 -1       130-1.87500E-05-3.47609E-20-4.89254E-20
 -1       131-6.25000E-06-4.43960E-21-7.05420E-21
 -1       132-3.12500E-05-9.65774E-20-1.38975E-19
 -1       133-2.50000E-05-7.53859E-20-9.12678E-20
 -1       134-3.12500E-05-9.15139E-20-1.30900E-19
 -1       135-4.37500E-05-1.80780E-19-2.20962E-19
 -1       136-4.37500E-05-1.66865E-19-2.29493E-19
 -1       137-3.75000E-05-1.23800E-19-1.75759E-19
 -1       138-6.25000E-06-4.67566E-21-1.03625E-20
 -1       139-1.25000E-05-1.96935E-20-2.64753E-20
 -1       140-1.87500E-05-4.10733E-20-4.80054E-20
 -1       141-6.25000E-06-7.96283E-21-4.83073E-21
 -1       142-1.87500E-05-4.71162E-20-5.53823E-20
 -1       143-4.37500E-05-1.67289E-19-2.27513E-19
 -1       144-6.25000E-06-7.71040E-21-7.38507E-21
 -1       145-2.50000E-05-8.15787E-20-9.82779E-20
 -1       146-1.25000E-05-2.48816E-20-1.93509E-20
 -1       147-3.75000E-05-1.48654E-19-1.68560E-19
 -1       148-3.75000E-05-1.39666E-19-1.38913E-19
 -1       149-1.25000E-05-3.63430E-20-2.19627E-20
 -1       150-6.25000E-06-1.41878E-20-5.60292E-21
 -1       151-6.25000E-06-1.48231E-20-3.65788E-21
 -1       152-1.25000E-05-3.39199E-20-2.40544E-20
 -1       153-6.25000E-06-9.88330E-21-6.38583E-21
 -1       154-1.87500E-05-5.37204E-20-5.52110E-20
 -1       155-1.87500E-05-6.09864E-20-5.35194E-20
 -1       156-6.25000E-06-9.12541E-21-6.52948E-21
 -1       157-1.87500E-05-5.92930E-20-4.22697E-20
 -1       158-1.87500E-05-4.89237E-20-5.27884E-20
 -1       159-2.50000E-05-7.71000E-20-9.00195E-20
 -1       160-3.12500E-05-1.05795E-19-1.31714E-19
 -1       161-3.12500E-05-1.16773E-19-1.28193E-19
 -1       162-4.37500E-05-1.86298E-19-2.13876E-19
 -1       163-4.37500E-05-1.80002E-19-1.93521E-19
 -1       164-3.75000E-05-1.44058E-19-1.49211E-19
 -1       165-4.37500E-05-1.77905E-19-1.76818E-19
 -1       166-3.12500E-05-1.09915E-19-1.13979E-19
 -1       167-3.12500E-05-1.16102E-19-1.04979E-19
 -1       168-2.50000E-05-8.99973E-20-7.37373E-20
 -1       169-4.37500E-05-1.62328E-19-1.77030E-19
 -1       170-2.50000E-05-4.55677E-20-7.40439E-20
 -1       171-3.75000E-05-1.16350E-19-1.73642E-19
 -1       172-3.75000E-05-1.09055E-19-1.12126E-19
 -1       173-1.25000E-05-1.95450E-20-2.13754E-20
 -1       174-1.25000E-05-1.01799E-20-2.03288E-20
 -1       175-1.87500E-05-2.56492E-20-4.78143E-20
 -1       176-6.25000E-06-3.97203E-21-6.35275E-21
 -1       177-1.87500E-05-2.46819E-20-4.42172E-20
 -1       178-2.50000E-05-3.85400E-20-8.28084E-20
 -1       179-3.12500E-05-6.62803E-20-1.22787E-19
 -1       180-4.37500E-05-1.82962E-19-2.42407E-19
 -1       181-3.12500E-05-7.09390E-20-1.18489E-19
 -1       182-3.12500E-05-7.18489E-20-8.34653E-20
 -1       183-3.12500E-05-7.16094E-20-9.38243E-20
 -1       184-2.50000E-05-4.58721E-20-6.80860E-20
 -1       185-4.37500E-05-1.34255E-19-1.41402E-19
 -1       186-4.37500E-05-1.40873E-19-1.89735E-19
 -1       187-3.75000E-05-1.06371E-19-1.46431E-19
 -1       188-6.25000E-06-4.54006E-21-1.34013E-21
 -1       189-1.25000E-05-7.84298E-21-1.58819E-20
 -1       190-1.87500E-05-2.55268E-20-3.84010E-20
 -1       191-1.87500E-05-2.48816E-20-4.37224E-20
 -1       192-6.25000E-06-9.98305E-22-7.52660E-21
 -1       193-6.25000E-06-6.12734E-22-4.08342E-21
 -1       194-4.37500E-05-1.57297E-19-2.16792E-19
 -1       195-1.87500E-05-3.66342E-20-4.39512E-20
 -1       196-3.12500E-05-1.01962E-19-1.15136E-19
 -1       197-6.25000E-06-1.04291E-20-5.39984E-21
 -1       198-1.25000E-05-2.85874E-20-1.71096E-20
 -1       199-2.18750E-05-6.18872E-20-5.35748E-20
 -1       200-2.81250E-05-8.34327E-20-8.80093E-20
 -1       201-1.56250E-05-3.85354E-20-3.08998E-20
 -1       202-3.12500E-05-1.10092E-19-1.25222E-19
 -1       203-3.75000E-05-1.33103E-19-1.75677E-19
 -1       204-3.43750E-05-1.13638E-19-1.42434E-19
 -1       205-3.43750E-05-1.22486E-19-1.41633E-19
 -1       206-2.81250E-05-9.21884E-20-1.02067E-19
 -1       207-4.37500E-05-1.63583E-19-2.16260E-19
 -1       208-4.37500E-05-1.68068E-19-2.17876E-19
 -1       209-3.75000E-05-1.16467E-19-1.62190E-19
 -1       210-4.37500E-05-1.74825E-19-2.30922E-19
 -1       211-4.37500E-05-1.63560E-19-1.81718E-19
 -1       212-4.37500E-05-1.47960E-19-1.59674E-19
 -1       213-1.87500E-05-2.89050E-20-4.16347E-20
 -1       214-1.25000E-05-1.47379E-20-1.92590E-20
 -1       215-6.25000E-06-1.37985E-20-4.28087E-21
 -1       216-1.25000E-05-3.23677E-20-2.42988E-20
 -1       217-4.37500E-05-1.64960E-19-2.18454E-19
 -1       218-4.37500E-05-1.74311E-19-2.27852E-19
 -1       219-3.75000E-05-1.23503E-19-1.61572E-19
 -1       220-2.81250E-05-8.17022E-20-9.60324E-20
 -1       221-4.06250E-05-1.49447E-19-1.72407E-19
 -1       222-3.75000E-05-1.22951E-19-1.53596E-19
 -1       223-3.43750E-05-1.10326E-19-1.20596E-19
 -1       224-2.81250E-05-7.41154E-20-9.09747E-20
 -1       225-2.50000E-05-5.96818E-20-6.69848E-20
 -1       226-1.56250E-05-2.72654E-20-2.85344E-20
 -1       227-2.18750E-05-5.10850E-20-5.48454E-20
 -1       228-2.18750E-05-4.11923E-20-5.80079E-20
 -1       229-1.25000E-05-2.54639E-20-2.39287E-20
 -1       230-1.56250E-05-3.47484E-20-3.09663E-20
 -1       231-2.81250E-05-6.35275E-20-9.47618E-20
 -1       232-3.43750E-05-1.09625E-19-1.32862E-19
 -1       233-2.18750E-05-4.78574E-20-5.86983E-20
 -1       234-1.25000E-05-2.63575E-20-1.88862E-20
 -1       235-2.50000E-05-7.04167E-20-8.44915E-20
 -1       236-2.18750E-05-5.72277E-20-6.42913E-20
 -1       237-9.37500E-06-1.34466E-20-1.09585E-20
 -1       238-2.50000E-05-6.73921E-20-7.73780E-20
 -1       239-4.37500E-05-1.69671E-19-1.76924E-19
 -1       240-4.06250E-05-1.53101E-19-1.64668E-19
 -1       241-4.06250E-05-1.51566E-19-1.59454E-19
 -1       242-3.43750E-05-1.17913E-19-1.25355E-19
 -1       243-4.37500E-05-1.67098E-19-1.70605E-19
 -1       244-4.06250E-05-1.50488E-19-1.49713E-19
 -1       245-3.43750E-05-1.18680E-19-1.22253E-19
 -1       246-3.75000E-05-1.42725E-19-1.41006E-19
 -1       247-2.81250E-05-9.28479E-20-8.97855E-20
 -1       248-1.25000E-05-1.33621E-20-2.39248E-20
 -1       249-1.56250E-05-2.42993E-20-3.20020E-20
 -1       250-1.56250E-05-2.50752E-20-3.08108E-20
 -1       251-2.18750E-05-3.80255E-20-6.16857E-20
 -1       252-6.25000E-06-6.87553E-21-5.81570E-21
 -1       253-9.37500E-06-1.32439E-20-1.26871E-20
 -1       254-9.37500E-06-1.21518E-20-1.08713E-20
 -1       255-6.25000E-06-5.97555E-21-3.81496E-21
 -1       256-9.37500E-06-8.78962E-21-7.78954E-21
 -1       257-1.56250E-05-2.97455E-20-3.34049E-20
 -1       258-3.43750E-05-1.09960E-19-1.18279E-19
 -1       259-9.37500E-06-1.06409E-20-9.35694E-21
 -1       260-6.25000E-06-6.18324E-21-5.99407E-21
 -1       261-6.25000E-06-9.48922E-21-6.75169E-21
 -1       262-4.37500E-05-1.66760E-19-2.07411E-19
 -1       263-3.75000E-05-1.12448E-19-1.09454E-19
 -1       264-6.25000E-06-1.55413E-21-5.21455E-21
 -1       265-1.25000E-05-3.09167E-20-1.95215E-20
 -1       266-6.25000E-06-5.74694E-21-5.16161E-21
 -1       267-3.75000E-05-1.13502E-19-1.70711E-19
 -1       268-1.25000E-05-2.39154E-20-2.20758E-20
 -1       269-4.37500E-05-1.62035E-19-1.43996E-19
 -1       270-4.37500E-05-1.65620E-19-2.00112E-19
 -1       271-6.25000E-06-1.03762E-20-4.68001E-21
 -1       272-1.56250E-05-3.27568E-20-3.33519E-20
 -1       273-1.87500E-05-5.56915E-20-4.48927E-20
 -1       274-3.12500E-05-8.17387E-20-8.84823E-20
 -1       275-4.37500E-05-1.66680E-19-1.65271E-19
 -1       276-6.25000E-06-7.51742E-21-4.80884E-21
 -1       277-3.12500E-05-7.19649E-20-1.20198E-19
 -1       278-1.87500E-05-4.66160E-20-5.02926E-20
 -1       279-1.25000E-05-1.17096E-20-1.80956E-20
 -1       280-6.25000E-06-8.35940E-21-7.05519E-21
 -3
    1PSTEP                         2           1           1          
  100CL  101 1.000000000         280                     0    1           1
 -4  STRESS      6    1
 -5  SXX         1    4    1    1
 -5  SYY         1    4    2    2
 -5  SZZ         1    4    3    3
 -5  SXY         1    4    1    2
 -5  SYZ         1    4    2    3
 -5  SZX         1    4    3    1
 -1         1-9.99990E-01-1.82166E-16-5.45462E-17-2.90479E-16 1.33395E-16 4.64706E-16
 -1         2-9.99990E-01 5.77935E-17-1.87612E-16-8.41445E-16-1.18951E-16-4.55211E-16
 -1         3-9.99990E-01 4.00383E-17 1.44246E-16-1.75010E-15 1.09724E-16-7.73550E-16
 -1         4-9.99990E-01-2.74104E-17-1.65558E-16-1.08426E-15 4.34587E-19 3.25319E-16
 -1         5-9.99990E-01-1.39863E-15-1.44751E-15-2.06838E-15-2.17268E-15-2.87227E-15
 -1         6-9.99990E-01-1.11098E-15-1.39019E-15-1.69052E-15 2.10850E-15 4.38051E-15
 -1         7-9.99990E-01-3.59044E-15-1.74690E-15 2.53430E-15 1.45768E-15-3.11337E-15
 -1         8-9.99990E-01-5.09086E-15-1.44379E-15 2.26035E-15-1.30690E-15-3.96114E-16
 -1         9-9.99990E-01 6.44275E-18-2.56315E-17-7.70528E-16 2.78554E-17-4.25130E-16
 -1        10-9.99990E-01 2.46399E-22-9.27589E-23-4.27388E-16 4.94235E-22 1.28811E-16
 -1        11-9.99990E-01 1.96484E-22 2.92770E-22 8.41400E-17-2.18664E-22 3.55128E-18
 -1        12-9.99990E-01 7.67532E-17 1.97211E-17-9.61032E-16-8.25715E-17-3.41014E-16
 -1        13-9.99990E-01-2.78277E-22-3.06211E-22-8.57761E-16 1.16324E-22 2.32500E-16
 -1        14-9.99990E-01-3.31989E-22 2.57600E-22-5.07482E-16 2.48314E-23-1.91277E-16
 -1        15-9.99990E-01-1.96413E-17 1.64044E-16-4.65940E-16-2.04056E-16-8.39823E-16
 -1        16-9.99990E-01 1.19150E-22 2.42313E-21-3.09712E-16-1.79807E-23-1.89156E-16
 -1        17-9.99990E-01-7.01324E-22-1.44936E-22-3.83498E-16-1.01393E-22-2.36065E-16
 -1        18-9.99990E-01-1.06891E-16 1.09087E-17-2.02047E-16 1.43156E-16 4.03240E-16
 -1        19-9.99990E-01-1.68896E-22 5.17292E-22 2.91521E-16-1.08205E-21-1.11051E-16
 -1        20-9.99990E-01-2.48821E-22 2.75808E-23 1.07166E-16 3.44652E-22 2.55185E-16
 -1        21-9.99990E-01 1.88180E-15 1.03232E-15 2.66590E-15-9.22494E-16-7.80826E-16
 -1        22-9.99990E-01-4.16061E-16 4.73579E-16-7.48972E-16-1.13126E-15-2.18193E-15
 -1        23-9.99990E-01 9.16163E-16 1.14163E-16 2.99821E-15 4.65950E-16 1.53434E-15
 -1        24-9.99990E-01-6.91406E-16-6.58838E-16 7.04391E-17 5.54375E-16 1.03122E-16
 -1        25-9.99990E-01-2.69417E-15-6.30946E-16-8.43667E-16-2.27713E-16-3.33947E-15
 -1        26-9.99990E-01-1.91366E-15-1.63440E-15 1.62537E-15 4.92441E-16-1.76802E-15
 -1        27-9.99990E-01-8.86457E-16-2.70677E-15 1.25389E-15-1.51525E-15 5.76542E-16
 -1        28-9.99990E-01-6.97308E-16-2.54093E-15-4.67622E-16-7.24373E-16-1.11427E-15
 -1        29-9.99990E-01-3.02299E-15-1.91641E-15 2.83089E-15-7.26602E-16 8.35007E-16
 -1        30-9.99990E-01-2.72645E-15-1.20054E-15 1.25688E-15-6.06609E-16 1.87428E-15
 -1        31-9.99990E-01-1.42625E-15-8.59687E-16 4.55732E-16-4.11346E-16 3.45421E-15
 -1        32-9.99990E-01-4.69418E-15-7.42275E-16 3.70757E-17 3.54991E-16 6.27096E-17
 -1        33-9.99990E-01 2.25169E-17 3.88885E-16 1.05947E-15 6.01719E-16 4.29947E-16
 -1        34-9.99990E-01-3.27060E-16-2.38823E-17 1.72358E-15-2.00689E-16 1.87533E-15
 -1        35-9.99990E-01-7.06252E-16-5.59994E-16 1.40844E-16-1.08205E-15-1.31619E-15
 -1        36-9.99990E-01-6.10990E-17-1.60500E-16 5.02525E-16 2.22382E-16-1.06241E-15
 -1        37-9.99990E-01-2.70197E-16-5.93929E-17-1.27770E-15 2.03532E-16-5.21154E-16
 -1        38-9.99990E-01 9.95021E-17 1.74967E-16-3.17595E-16 1.69115E-16 1.55487E-15
 -1        39-9.99990E-01 4.08327E-16-2.14978E-16-2.05047E-16-4.08023E-16-4.32941E-16
 -1        40-9.99990E-01 5.44063E-16-6.08293E-16-2.52127E-15 1.44030E-16 7.15642E-16
 -1        41-9.99990E-01-1.10480E-15-1.15827E-15 1.10555E-16 8.25378E-16 4.33553E-16
 -1        42-9.99990E-01-4.20555E-16 4.67742E-16 1.30209E-15 1.31293E-16 2.77851E-16
 -1        43-9.99990E-01-1.29543E-16-2.61244E-16 7.23628E-17-2.69034E-16-1.08023E-15
 -1        44-9.99990E-01-1.78024E-15 5.72877E-17 2.18710E-15-7.03778E-16 1.80892E-15
 -1        45-9.99990E-01 1.06090E-17 1.50479E-17-5.36133E-16 6.78779E-17-1.48646E-16
 -1        46-9.99990E-01-1.08862E-16-1.35953E-17-4.12981E-16 1.15950E-16 1.66025E-16
 -1        47-9.99990E-01-2.47915E-16-1.03687E-16-5.76974E-16-3.69301E-17-2.40914E-16
 -1        48-9.99990E-01-8.68346E-17 1.11115E-16-1.52766E-16 2.59237E-17 3.62910E-17
 -1        49-9.99990E-01 7.65486E-17 1.22151E-16-6.45384E-16 9.93497E-17-4.47886E-16
 -1        50-9.99990E-01 1.70460E-17-4.51711E-17-3.87121E-17-1.40637E-17-3.57753E-16
 -1        51-9.99990E-01 2.72895E-22 4.49748E-22-5.34446E-17-3.35358E-22-1.52525E-17
 -1        52-9.99990E-01 1.26391E-21 5.76330E-17-4.07234E-16 1.08297E-16 9.90538E-17
 -1        53-9.99990E-01-8.17006E-17 6.40235E-17-4.46353E-16-8.83955E-18-5.96741E-17
 -1        54-9.99990E-01-8.99070E-17 3.88031E-18-1.00804E-15-4.30144E-17-4.22099E-16
 -1        55-9.99990E-01-8.93205E-17-9.01627E-17-5.68987E-16 8.97418E-17 1.59726E-18
 -1        56-9.99990E-01 2.74840E-17-7.94181E-17-6.19519E-16 2.59645E-17-3.15581E-16
 -1        57-9.99990E-01-1.56500E-16-3.75828E-17-1.17490E-15-9.70415E-17-2.23620E-16
 -1        58-9.99990E-01 7.88547E-17-5.34864E-22-4.76331E-16-5.24890E-17-1.45652E-17
 -1        59-9.99990E-01-4.46564E-22-2.44810E-22-5.18388E-16 3.33324E-22-2.98583E-16
 -1        60-9.99990E-01 1.93918E-17 1.47247E-16-9.43377E-16 8.33187E-17-5.77386E-16
 -1        61-9.99990E-01 4.21685E-17 3.86090E-17-6.59275E-16 4.03899E-17-2.54823E-16
 -1        62-9.99990E-01-1.23035E-16-7.71478E-17-1.46189E-16 1.00089E-16 3.60790E-16
 -1        63-9.99990E-01 6.61844E-22-1.38813E-21-2.25926E-16-6.88310E-22 1.92821E-16
 -1        64-9.99990E-01-7.34890E-17-2.46188E-17-3.56591E-16-4.90535E-17 4.71415E-18
 -1        65-9.99990E-01-9.51925E-17 5.36971E-17-4.03459E-16 2.07475E-17 1.58269E-16
 -1        66-9.99990E-01 4.08368E-22-1.11085E-21-3.79176E-16-2.54164E-22 8.65932E-20
 -1        67-9.99990E-01-1.13496E-21 1.42541E-16-3.91714E-16-2.49336E-17-5.23342E-16
 -1        68-9.99990E-01 3.22067E-17 1.06329E-16-2.23355E-16 6.92678E-17 2.05040E-16
 -1        69-9.99990E-01-7.47242E-22 2.40075E-21-1.71723E-16 4.26408E-22-2.88013E-16
 -1        70-9.99990E-01-4.68026E-16-1.31241E-15-2.34348E-15-1.55454E-15-1.54355E-15
 -1        71-9.99990E-01 3.05238E-15-1.12166E-15-1.03442E-15-1.84610E-15-1.99975E-15
 -1        72-9.99990E-01-2.66539E-15-2.39132E-15-1.01762E-15-2.04646E-15 1.27405E-15
 -1        73-9.99990E-01-1.45157E-15-5.49437E-16-5.31859E-16-8.26363E-17 2.43518E-15
 -1        74-9.99990E-01 6.51095E-16 1.11253E-15 4.24561E-16-1.08386E-15 3.11129E-15
 -1        75-9.99990E-01-2.87394E-15-1.89975E-15-5.64743E-16-3.63868E-16 1.17225E-15
 -1        76-9.99990E-01-4.03992E-15-1.89277E-15 7.60738E-17-1.53657E-15-2.99450E-16
 -1        77-9.99990E-01-1.88593E-15-2.14701E-15 2.26068E-16-2.62844E-15 3.25371E-16
 -1        78-9.99990E-01-1.94738E-15-2.45003E-15-4.67808E-16-1.65361E-15 7.23164E-16
 -1        79-9.99990E-01-1.85736E-15-1.92698E-15-6.81355E-16-2.13545E-15-5.49059E-17
 -1        80-9.99990E-01-8.80910E-16-2.58717E-15 5.06752E-16-1.48498E-15-1.67755E-15
 -1        81-9.99990E-01 3.66730E-16-1.22520E-15-1.06366E-15 4.47737E-16 1.62130E-15
 -1        82-9.99990E-01-3.19860E-15-1.83109E-15 1.07185E-15 1.26396E-15-6.64556E-16
 -1        83-9.99990E-01-1.12929E-15-2.10295E-15-5.58264E-16-7.07774E-16 1.76077E-15
 -1        84-9.99990E-01-7.11979E-16-8.82063E-16 6.60254E-16-1.01208E-15-9.53348E-16
 -1        85-9.99990E-01-1.17918E-15-5.33628E-16-8.85779E-16-1.07842E-17-5.37033E-16
 -1        86-9.99990E-01-1.35246E-15 2.93403E-17 4.61836E-16 2.22710E-16 7.01676E-16
 -1        87-9.99990E-01-7.79129E-16-2.71594E-16-1.25990E-15-1.64030E-15-1.84486E-16
 -1        88-9.99990E-01 1.65157E-15 1.75258E-15 8.08672E-16-1.57962E-15 2.02677E-15
 -1        89-9.99990E-01 1.03425E-16 5.47238E-16-2.62312E-15-1.67908E-15 6.28802E-16
 -1        90-9.99990E-01 1.63223E-15-3.45787E-16-1.92209E-15-1.64499E-15-9.20030E-16
 -1        91-9.99990E-01-9.37459E-16-2.17327E-15 1.20939E-15-2.79911E-15 3.22961E-16
 -1        92-9.99990E-01 1.40247E-15-1.56101E-15-9.72069E-16 1.46499E-16 8.37900E-16
 -1        93-9.99990E-01 3.03340E-16-1.36319E-15-2.84127E-15-1.77150E-15-1.27175E-15
 -1        94-9.99990E-01 3.76800E-15 5.56936E-16 6.95049E-16-9.53682E-16-1.70061E-15
 -1        95-9.99990E-01 3.11102E-16 4.37015E-16-7.11025E-16 1.28545E-16-2.70667E-16
 -1        96-9.99990E-01-5.33735E-16 1.86579E-15 3.40288E-15-4.24951E-16-2.46809E-16
 -1        97-9.99990E-01 3.19457E-16 1.24555E-15-9.36690E-16 1.26604E-15 2.89096E-16
 -1        98-9.99990E-01 4.13970E-17-1.51262E-17 5.96237E-16 3.84512E-17-6.03991E-16
 -1        99-9.99990E-01 5.69713E-16-1.73716E-16 1.99102E-16 4.19125E-16-5.50243E-16
 -1       100-9.99990E-01-8.19522E-17-9.94500E-17 1.36097E-16 3.72485E-17-1.32592E-16
 -1       101-9.99990E-01-1.14823E-16-7.17364E-18-1.13022E-15-1.37232E-16-1.69693E-16
 -1       102-9.99990E-01-1.69489E-16 5.40978E-17 1.65021E-16 1.23119E-16-8.16266E-16
 -1       103-9.99990E-01 3.78104E-16 1.97141E-17 1.32479E-16 1.16190E-16 2.94870E-16
 -1       104-9.99990E-01 4.31447E-16 1.09074E-16-4.37869E-16 5.54490E-17-4.15257E-16
 -1       105-9.99990E-01-5.44899E-17-1.21534E-16 3.09351E-16 8.62907E-17 2.61983E-16
 -1       106-9.99990E-01 2.13225E-16-1.25719E-16-5.90665E-16 1.09471E-16-4.57329E-16
 -1       107-9.99990E-01-1.93955E-16 1.41227E-15 1.46089E-15 1.62305E-17-1.06883E-16
 -1       108-9.99990E-01 7.99412E-16 8.64583E-16 2.86358E-15-9.25793E-16-3.61619E-16
 -1       109-9.99990E-01-1.00074E-16 2.89689E-16-1.45747E-16 1.98203E-16-8.66739E-16
 -1       110-9.99990E-01 2.52613E-16 4.97279E-16 8.22641E-16-2.72644E-16-8.45930E-16
 -1       111-9.99990E-01 9.12473E-16 1.71319E-15 3.46842E-15-2.52064E-16-8.79929E-16
 -1       112-9.99990E-01-9.92998E-16 2.35125E-16 1.54799E-15 7.53952E-16 2.02552E-15
 -1       113-9.99990E-01 1.14075E-16 6.50391E-16-7.86549E-16 5.46412E-16-1.57757E-15
 -1       114-9.99990E-01 2.74247E-16 1.72310E-15 1.45610E-15 2.15038E-17-1.50199E-15
 -1       115-9.99990E-01 2.45437E-16 1.14765E-16-8.82833E-16 2.80380E-17 7.90216E-17
 -1       116-9.99990E-01 2.68822E-16 5.24650E-16 1.26808E-16 1.01812E-15 6.97665E-16
 -1       117-9.99990E-01-6.45045E-17-1.01482E-16-1.39257E-15-3.94697E-16-1.39126E-16
 -1       118-9.99990E-01 5.11185E-17 1.88667E-16 8.76229E-16 1.59310E-16 4.63759E-17
 -1       119-9.99990E-01 8.05030E-17-2.94826E-17-3.22619E-16 4.75568E-16-7.65263E-16
 -1       120-9.99990E-01 1.00473E-17 5.74725E-16 2.62301E-16 2.98769E-16-2.61653E-16
 -1       121-9.99990E-01 7.69089E-16 2.85898E-16 4.33275E-16-5.44204E-16 1.37991E-16
 -1       122-9.99990E-01 5.31016E-16-2.90964E-16 1.33791E-15-1.65678E-17 9.03225E-16
 -1       123-9.99990E-01 8.28543E-16-1.06795E-16 2.09130E-15 5.29386E-16 2.18235E-15
 -1       124-9.99990E-01-1.38310E-17-2.47413E-16-5.87764E-16 2.15432E-16 5.52142E-16
 -1       125-9.99990E-01-2.71303E-17-4.91451E-17 2.87931E-16 2.53337E-16 7.64028E-16
 -1       126-9.99990E-01 4.20347E-16 3.61127E-16 8.38253E-16 7.09357E-16 1.51207E-15
 -1       127-9.99990E-01 1.62908E-16-2.14831E-16 1.21119E-15-2.19961E-17-7.78319E-17
 -1       128-9.99990E-01-1.16389E-15-1.12964E-15 1.97821E-15-5.12462E-16 1.71942E-16
 -1       129-9.99990E-01-1.12008E-16-1.92957E-16 1.41581E-15-1.30352E-16 2.04612E-16
 -1       130-9.99990E-01-4.08154E-17-1.12483E-16-1.14153E-15 1.94368E-16 3.31086E-16
 -1       131-9.99990E-01-4.23691E-17-2.78599E-16-7.85429E-16 1.19007E-16 5.97025E-16
 -1       132-9.99990E-01 8.93660E-16 4.52701E-16 9.21800E-16-8.71339E-16-1.30858E-15
 -1       133-9.99990E-01-3.48496E-16 5.58197E-16 5.85053E-18-7.64993E-17-1.83151E-16
 -1       134-9.99990E-01 4.62584E-16 7.41651E-16-1.02370E-17-2.79958E-16 1.35953E-15
 -1       135-9.99990E-01-8.95431E-16-6.51883E-16 2.07076E-15 5.19558E-16-1.68485E-15
 -1       136-9.99990E-01 4.79200E-17-1.37226E-15 6.45493E-16-6.88465E-16 6.06772E-16
 -1       137-9.99990E-01-1.04504E-16 4.19179E-16 1.69476E-15-1.49243E-16-1.25958E-15
 -1       138-9.99990E-01 1.31441E-16-1.46467E-16 6.39955E-17-2.48543E-16-6.44030E-16
 -1       139-9.99990E-01 1.21203E-17 5.54238E-17-9.31980E-16-2.57548E-16-2.18246E-15
 -1       140-9.99990E-01 2.47616E-16 4.16463E-16 1.74955E-15 1.13049E-16-6.16773E-17
 -1       141-9.99990E-01 7.89267E-17-1.64243E-16-8.51542E-16 2.48822E-16 4.26874E-16
 -1       142-9.99990E-01 5.40220E-16-2.91747E-16 1.14414E-15 7.62394E-18 7.82741E-16
 -1       143-9.99990E-01 8.88174E-18-6.86802E-16 1.92514E-15-5.16079E-16 2.78539E-15
 -1       144-9.99990E-01 2.95302E-17 1.78422E-16-7.29966E-16-9.36737E-17-1.44299E-16
 -1       145-9.99990E-01 4.15945E-16 8.46836E-16-1.50132E-15 1.10781E-16-5.59236E-16
 -1       146-9.99990E-01 1.87655E-16 3.63632E-17-9.69004E-16-3.35562E-17-8.87530E-16
 -1       147-9.99990E-01 1.01903E-15 1.35592E-16-2.21015E-15-1.55996E-16-2.07349E-15
 -1       148-9.99990E-01 7.09614E-16 1.18628E-16-1.06552E-15 4.47814E-16 1.04032E-15
 -1       149-9.99990E-01-3.19870E-16 2.03001E-17-1.53353E-15 2.23906E-17 1.05249E-15
 -1       150-9.99990E-01-1.18033E-16 9.89530E-17-9.28061E-16-8.41574E-17-2.78927E-16
 -1       151-9.99990E-01-2.45369E-16-3.96605E-17-1.11050E-15 1.11406E-16 6.55046E-16
 -1       152-9.99990E-01 4.54161E-16-3.20797E-17-1.90311E-15 2.45949E-16-2.88240E-16
 -1       153-9.99990E-01 3.76664E-16 7.52948E-17-5.82693E-17 1.13741E-17-6.09015E-17
 -1       154-9.99990E-01 3.88809E-16 3.43970E-16-6.70508E-16 4.91515E-16-3.30098E-16
 -1       155-9.99990E-01 3.90261E-16 5.71541E-17-1.58375E-15 1.31762E-16 1.68144E-15
 -1       156-9.99990E-01-1.21369E-17 1.68621E-16-1.53781E-15-5.47364E-17-1.23354E-15
 -1       157-9.99990E-01-4.13264E-16 2.34310E-16-7.45092E-16-2.00004E-16 1.04157E-15
 -1       158-9.99990E-01 2.16061E-16-2.46870E-16-8.72238E-16-2.45588E-16-6.36715E-16
 -1       159-9.99990E-01 2.14586E-16 1.29441E-16-4.52436E-16 1.91415E-16-1.19204E-15
 -1       160-9.99990E-01 1.42503E-15 4.65669E-16-6.75627E-16-4.51390E-16-1.84439E-15
 -1       161-9.99990E-01 1.29877E-16 4.27192E-16-1.78187E-15 1.64682E-16-2.83099E-15
 -1       162-9.99990E-01-1.35213E-15-2.50358E-16 7.59347E-16 3.66099E-16-2.61675E-15
 -1       163-9.99990E-01 7.30801E-16-5.64724E-16-5.81343E-16 5.13969E-17-2.04038E-16
 -1       164-9.99990E-01-3.56861E-16 1.10648E-16-7.22606E-16-2.74947E-16-7.10230E-16
 -1       165-9.99990E-01-1.07087E-15-3.19334E-16-5.90141E-16 4.67970E-16-1.69868E-16
 -1       166-9.99990E-01 3.19710E-16 3.65033E-16-1.52848E-15-2.42207E-16 4.89960E-16
 -1       167-9.99990E-01 7.30278E-16 2.51609E-16-4.85433E-16 9.20239E-16 2.10974E-16
 -1       168-9.99990E-01 3.35896E-16 2.92857E-16-1.19654E-15-7.86245E-17 3.63046E-17
 -1       169-9.99990E-01-4.91247E-16-2.58184E-16-1.89507E-15-9.46615E-16-1.73021E-15
 -1       170-9.99990E-01 4.43654E-16 3.86921E-16 1.06776E-15 2.74288E-16 7.51459E-16
 -1       171-9.99990E-01 8.31363E-16 2.84618E-16 2.75340E-16 3.54268E-17-1.53806E-15
 -1       172-9.99990E-01-4.30671E-16 1.23955E-15 1.02848E-15-6.40262E-17-5.79668E-17
 -1       173-9.99990E-01 3.03114E-16-2.34236E-17-6.80985E-16-3.44216E-16 1.25456E-15
 -1       174-9.99990E-01 1.45849E-16-1.32274E-16 2.52962E-15 1.66871E-16-1.41236E-15
 -1       175-9.99990E-01 1.70505E-16 3.99230E-17-1.70653E-16-9.31038E-17-4.74436E-17
 -1       176-9.99990E-01 4.89320E-16-3.16510E-17-8.05437E-16-1.22904E-16 9.14816E-16
 -1       177-9.99990E-01-9.65266E-17-1.31073E-16-8.39890E-17-1.66203E-19 9.67066E-16
 -1       178-9.99990E-01-4.69111E-17 7.65071E-17-1.33975E-16 3.30880E-16 1.43900E-15
 -1       179-9.99990E-01 5.54114E-16 7.83765E-16 1.02049E-15 6.96965E-16 2.79033E-16
 -1       180-9.99990E-01-1.79133E-15-2.94291E-16 1.19801E-15-5.82834E-16-7.96869E-16
 -1       181-9.99990E-01 6.45937E-16 2.38418E-16-6.92276E-16-3.62921E-16-6.99133E-16
 -1       182-9.99990E-01 1.05589E-16 4.13571E-17 9.09402E-16 1.69897E-17-8.56492E-16
 -1       183-9.99990E-01-2.69948E-16 1.03772E-15 2.44915E-15 2.28126E-17 8.91343E-16
 -1       184-9.99990E-01-1.20174E-16-3.96654E-16 1.88200E-15 2.53958E-16-1.02710E-15
 -1       185-9.99990E-01-8.03430E-16-1.80504E-16-8.55676E-16 9.99627E-16 1.38765E-15
 -1       186-9.99990E-01-1.32759E-15-1.04009E-16 3.08189E-15-8.38455E-16 2.61326E-15
 -1       187-9.99990E-01-6.21196E-16 8.32970E-16-6.98368E-17 3.35234E-17 1.13528E-15
 -1       188-9.99990E-01-4.91184E-16 2.19835E-18-2.15941E-16-2.47641E-17 8.08162E-16
 -1       189-9.99990E-01 2.60245E-17-2.33507E-17 6.85105E-16 4.21170E-16 6.27952E-16
 -1       190-9.99990E-01-2.19300E-16 1.09309E-16 1.10675E-15 3.24936E-16-5.84100E-16
 -1       191-9.99990E-01 1.86357E-16-1.79444E-16 2.32025E-15 1.94285E-16-3.67512E-16
 -1       192-9.99990E-01 8.01766E-17-2.81003E-16 8.52269E-16 6.46689E-17-1.20562E-15
 -1       193-9.99990E-01 4.95008E-17-2.99440E-17 1.40235E-15 1.56022E-16-1.03768E-15
 -1       194-9.99990E-01-1.12282E-15 9.31047E-16-2.55837E-16 2.89051E-16-3.09677E-16
 -1       195-9.99990E-01 1.63482E-16 1.55804E-16-4.35544E-16 3.02289E-16 4.80939E-16
 -1       196-9.99990E-01-1.64005E-16-2.15409E-17-1.91652E-15-1.42377E-16 9.78694E-17
 -1       197-9.99990E-01-2.56360E-16-6.06097E-17-6.30320E-17-6.14540E-17-3.17665E-16
 -1       198-9.99990E-01 2.88269E-17 2.01338E-16-2.83294E-16 1.25560E-16 4.42667E-17
 -1       199-9.99990E-01 2.55952E-17-7.61910E-17-3.35467E-16 1.35433E-16-7.87921E-16
 -1       200-9.99990E-01 4.09217E-17 1.41361E-16-7.44788E-16 3.88367E-17-9.27475E-16
 -1       201-9.99990E-01-1.06268E-16 7.66783E-17-9.94898E-16 1.09358E-16-6.56977E-16
 -1       202-9.99990E-01 6.16204E-16 6.96510E-16-2.68077E-16-6.56060E-17-6.74258E-16
 -1       203-9.99990E-01 1.06053E-15 2.73071E-16-7.62904E-16-3.29557E-16-1.44415E-15
 -1       204-9.99990E-01 3.45064E-16 2.28510E-16-8.12935E-16-5.84846E-17 1.42523E-15
 -1       205-9.99990E-01 8.89989E-17-1.83438E-16-1.44754E-15-9.62514E-17 1.43975E-16
 -1       206-9.99990E-01 1.36298E-16 6.32204E-16-1.98492E-15-1.78969E-16 5.90555E-16
 -1       207-9.99990E-01-1.14860E-16-8.70291E-16-3.37870E-16-4.44531E-16-7.69063E-16
 -1       208-9.99990E-01-5.45123E-16-7.08284E-17 1.65807E-16-2.40161E-16 1.15944E-15
 -1       209-9.99990E-01-4.12627E-16-3.76601E-16-1.19426E-15-6.78916E-16 1.39874E-15
 -1       210-9.99990E-01-9.66694E-16-9.39031E-16-6.67590E-16-7.96703E-16 2.08887E-16
 -1       211-9.99990E-01-1.30221E-16 6.79052E-17-1.06735E-15-9.85918E-16-3.74724E-16
 -1       212-9.99990E-01 8.94809E-16-2.27126E-16 3.66983E-16-1.25839E-15-8.76463E-16
 -1       213-9.99990E-01 4.40790E-16-2.53802E-16 1.32653E-15 3.69880E-16-4.95493E-16
 -1       214-9.99990E-01 4.60207E-16-8.83821E-17 1.22049E-15 2.77498E-16-1.27433E-15
 -1       215-9.99990E-01-2.62409E-16-1.05147E-16-6.88763E-16 5.48355E-18 5.91347E-16
 -1       216-9.99990E-01 3.47436E-16 2.29242E-16-1.40313E-15 1.13333E-16-5.16317E-16
 -1       217-9.99990E-01-1.64355E-16-4.93489E-16 1.06284E-15-7.44478E-16 1.15331E-15
 -1       218-9.99990E-01-4.66270E-16-8.63783E-16 1.43318E-15-9.34507E-16 1.82062E-15
 -1       219-9.99990E-01 1.67684E-16 1.20671E-16 1.86121E-16-3.88517E-16-1.38019E-15
 -1       220-9.99990E-01 2.17401E-16 3.44591E-16-6.80398E-16 1.02832E-16 3.98523E-16
 -1       221-9.99990E-01 2.44549E-17-1.59788E-16-3.25570E-15-7.88871E-16-1.19262E-15
 -1       222-9.99990E-01 4.68846E-16 1.98134E-16-9.31646E-16-4.17205E-16 7.62223E-16
 -1       223-9.99990E-01-4.76315E-16 1.03840E-15-1.11206E-15-1.50060E-16-8.98073E-16
 -1       224-9.99990E-01-3.70039E-16 2.90897E-16 1.19022E-16 1.04062E-17 4.29667E-16
 -1       225-9.99990E-01 2.46165E-16 3.19271E-16 3.61119E-16 1.03635E-16 3.71366E-16
 -1       226-9.99990E-01 4.05898E-16-7.07149E-17 9.12724E-17 4.37776E-16 4.62798E-16
 -1       227-9.99990E-01 3.20496E-16 2.67412E-16-7.06378E-16 1.22805E-16 5.32931E-16
 -1       228-9.99990E-01 2.80909E-16 6.02449E-17 2.58058E-16 2.57159E-16 1.01737E-15
 -1       229-9.99990E-01 2.07281E-16 3.79204E-16-9.02264E-16 1.27477E-16-3.23400E-16
 -1       230-9.99990E-01 1.48198E-16 7.05777E-17-1.32348E-15 1.37503E-16-5.31606E-16
 -1       231-9.99990E-01 6.04201E-16-1.44717E-16 1.95240E-16 6.50843E-16 1.15030E-15
 -1       232-9.99990E-01 4.64789E-16-3.09386E-16-6.33912E-16-2.15244E-16 2.20132E-16
 -1       233-9.99990E-01 1.65534E-16 6.02620E-17-1.56427E-16 4.44428E-16-3.64806E-16
 -1       234-9.99990E-01 1.54320E-16 1.11153E-16-6.23075E-16 6.45878E-17-1.43332E-16
 -1       235-9.99990E-01-3.63014E-17 9.32124E-16-1.98488E-16 3.19225E-16 1.47499E-16
 -1       236-9.99990E-01 2.42073E-16 6.90863E-16-1.57172E-16 2.17987E-16-2.20751E-16
 -1       237-9.99990E-01 1.85460E-17 1.66665E-16-3.57154E-16 1.70521E-16 7.89776E-17
 -1       238-9.99990E-01-1.95061E-18 1.90474E-16-6.50779E-16 2.07195E-16-2.35792E-16
 -1       239-9.99990E-01 1.23830E-16 2.85255E-16 5.33202E-17-1.39836E-16 1.47594E-15
 -1       240-9.99990E-01-3.31341E-16-5.21127E-16-1.44995E-15-2.12368E-16 8.81469E-16
 -1       241-9.99990E-01 7.37513E-16 3.88847E-16-1.09083E-15-4.52482E-16 2.10211E-15
 -1       242-9.99990E-01 4.00464E-16-2.73480E-16-1.81214E-15-1.62348E-16 1.45046E-15
 -1       243-9.99990E-01 3.56911E-16 1.47294E-15-7.06006E-16-5.06704E-17 1.72683E-15
 -1       244-9.99990E-01 2.80290E-16-9.95339E-18 6.55095E-16-4.02155E-16 1.30906E-16
 -1       245-9.99990E-01-2.56540E-16 3.91116E-16-9.31844E-16 3.76983E-16-1.69284E-16
 -1       246-9.99990E-01 8.07369E-16 5.91913E-16-1.82821E-15 8.48346E-16 1.44585E-15
 -1       247-9.99990E-01-2.17250E-16 7.32136E-17-3.66681E-16 1.90671E-16 6.26488E-17
 -1       248-9.99990E-01 5.70602E-16-2.41582E-16-4.47234E-16-6.67448E-17 9.78372E-16
 -1       249-9.99990E-01 1.61284E-16-8.79799E-17-5.91064E-16 2.41363E-16 3.07255E-16
 -1       250-9.99990E-01 1.61655E-18-5.54458E-18-1.06689E-15-1.60690E-16 8.09136E-16
 -1       251-9.99990E-01-3.60834E-17-1.23428E-16 4.44717E-17 1.03395E-16-1.09551E-16
 -1       252-9.99990E-01-6.57094E-17-2.40934E-17-3.86347E-16 1.15351E-16-8.68555E-17
 -1       253-9.99990E-01 7.26717E-17 2.16680E-16-6.00599E-16-2.60031E-17-1.65940E-16
 -1       254-9.99990E-01-4.94146E-17 2.06531E-16-5.02917E-16 6.15404E-17 2.39385E-16
 -1       255-9.99990E-01 1.10515E-16 7.14265E-17 5.98780E-17-2.28296E-16 7.32925E-16
 -1       256-9.99990E-01-2.04075E-16 1.87605E-16-6.90928E-16 1.86504E-16 5.89121E-16
 -1       257-9.99990E-01 3.05453E-16 5.57280E-17 3.94014E-16 8.27997E-17 2.67474E-16
 -1       258-9.99990E-01-9.14836E-16 8.68218E-16 5.98970E-16-3.57064E-16-3.01482E-16
 -1       259-9.99990E-01-8.62521E-17 1.68961E-16-3.70184E-16 2.39071E-16 4.28502E-16
 -1       260-9.99990E-01 3.19411E-16-2.47029E-16-1.37511E-16 1.09307E-16 5.36646E-16
 -1       261-9.99990E-01 8.70232E-17 1.03270E-16-8.04684E-16-2.88617E-17-6.39961E-16
 -1       262-9.99990E-01-5.88209E-17-3.02662E-16-1.52988E-15-3.36188E-16 5.66217E-16
 -1       263-9.99990E-01-6.14387E-16 1.29105E-15 1.12465E-15-4.38007E-16-7.92659E-16
 -1       264-9.99990E-01 7.29699E-18-7.85234E-17 1.11835E-15 1.91926E-16-7.74970E-16
 -1       265-9.99990E-01-2.63749E-16 3.87407E-17-7.69764E-16 3.22275E-17-1.85433E-16
 -1       266-9.99990E-01 2.35360E-16-5.52514E-17 1.09643E-16 2.68991E-16-1.90342E-16
 -1       267-9.99990E-01 1.20405E-15-5.67274E-16 1.36174E-15 3.75941E-16-2.55847E-16
 -1       268-9.99990E-01 2.78029E-16-6.41332E-17-2.19287E-16-5.28724E-17-1.20383E-16
 -1       269-9.99990E-01 1.37886E-15 9.23214E-16 1.12757E-15-6.03329E-16-1.51913E-15
 -1       270-9.99990E-01-4.53478E-17-8.97775E-16-1.21621E-15-2.86913E-16-1.18833E-15
 -1       271-9.99990E-01 1.22804E-16 1.63627E-17-4.06088E-16 3.94104E-17-3.94765E-16
 -1       272-9.99990E-01 1.33355E-16 7.90471E-17-1.07989E-15 1.55706E-16-5.83893E-16
 -1       273-9.99990E-01 3.97685E-16 4.63631E-16-1.13238E-15-2.21973E-17-5.36035E-16
 -1       274-9.99990E-01-2.80297E-16 1.10469E-15 1.46924E-16 4.34424E-17 1.27239E-17
 -1       275-9.99990E-01-3.82139E-16 2.69693E-16-1.37716E-15-1.20951E-15-7.23124E-16
 -1       276-9.99990E-01 1.49514E-16-4.31976E-17-1.68661E-16 2.79176E-16 1.66483E-16
 -1       277-9.99990E-01 9.54304E-16-3.24119E-17 9.82596E-16 4.82322E-16 9.13444E-16
 -1       278-9.99990E-01-1.79013E-16 5.20811E-16-3.75106E-16 1.69963E-16 3.47113E-17
 -1       279-9.99990E-01-8.54041E-17-1.24066E-16 4.11885E-16 4.03669E-16 6.40160E-16
 -1       280-9.99990E-01 4.02713E-16-2.17996E-16 2.34563E-16-5.49337E-17 1.03283E-16
 -3
    1PSTEP                         3           1           1          
  100CL  101 1.000000000         280                     0    1           1
 -4  TOSTRAIN    6    1
 -5  EXX         1    4    1    1
 -5  EYY         1    4    2    2
 -5  EZZ         1    4    3    3
 -5  EXY         1    4    1    2
 -5  EYZ         1    4    2    3
 -5  EZX         1    4    3    1
 -1         1-4.99995E-06-9.10829E-22-2.72731E-22-1.45239E-21 6.66973E-22 2.32353E-21
 -1         2-4.99995E-06 2.88967E-22-9.38059E-22-4.20723E-21-5.94757E-22-2.27606E-21
 -1         3-4.99995E-06 2.00191E-22 7.21228E-22-8.75050E-21 5.48621E-22-3.86775E-21
 -1         4-4.99995E-06-1.37052E-22-8.27788E-22-5.42132E-21 2.17294E-24 1.62660E-21
 -1         5-4.99995E-06-6.99315E-21-7.23756E-21-1.03419E-20-1.08634E-20-1.43613E-20
 -1         6-4.99995E-06-5.55489E-21-6.95094E-21-8.45260E-21 1.05425E-20 2.19025E-20
 -1         7-4.99995E-06-1.79522E-20-8.73451E-21 1.26715E-20 7.28840E-21-1.55668E-20
 -1         8-4.99995E-06-2.54543E-20-7.21894E-21 1.13018E-20-6.53451E-21-1.98057E-21
 -1         9-4.99995E-06 3.22138E-23-1.28158E-22-3.85264E-21 1.39277E-22-2.12565E-21
 -1        10-4.99995E-06 1.23199E-27-4.63795E-28-2.13694E-21 2.47118E-27 6.44056E-22
 -1        11-4.99995E-06 9.82421E-28 1.46385E-27 4.20700E-22-1.09332E-27 1.77564E-23
 -1        12-4.99995E-06 3.83766E-22 9.86054E-23-4.80516E-21-4.12858E-22-1.70507E-21
 -1        13-4.99995E-06-1.39138E-27-1.53106E-27-4.28880E-21 5.81620E-28 1.16250E-21
 -1        14-4.99995E-06-1.65995E-27 1.28800E-27-2.53741E-21 1.24157E-28-9.56385E-22
 -1        15-4.99995E-06-9.82066E-23 8.20219E-22-2.32970E-21-1.02028E-21-4.19912E-21
 -1        16-4.99995E-06 5.95752E-28 1.21157E-26-1.54856E-21-8.99036E-29-9.45780E-22
 -1        17-4.99995E-06-3.50662E-27-7.24679E-28-1.91749E-21-5.06967E-28-1.18033E-21
 -1        18-4.99995E-06-5.34456E-22 5.45437E-23-1.01023E-21 7.15778E-22 2.01620E-21
 -1        19-4.99995E-06-8.44481E-28 2.58646E-27 1.45761E-21-5.41026E-27-5.55256E-22
 -1        20-4.99995E-06-1.24411E-27 1.37904E-28 5.35828E-22 1.72326E-27 1.27593E-21
 -1        21-4.99995E-06 9.40900E-21 5.16158E-21 1.33295E-20-4.61247E-21-3.90413E-21
 -1        22-4.99995E-06-2.08030E-21 2.36789E-21-3.74486E-21-5.65628E-21-1.09096E-20
 -1        23-4.99995E-06 4.58081E-21 5.70815E-22 1.49910E-20 2.32975E-21 7.67171E-21
 -1        24-4.99995E-06-3.45703E-21-3.29419E-21 3.52195E-22 2.77187E-21 5.15609E-22
 -1        25-4.99995E-06-1.34709E-20-3.15473E-21-4.21833E-21-1.13857E-21-1.66974E-20
 -1        26-4.99995E-06-9.56831E-21-8.17200E-21 8.12684E-21 2.46220E-21-8.84008E-21
 -1        27-4.99995E-06-4.43228E-21-1.35339E-20 6.26943E-21-7.57624E-21 2.88271E-21
 -1        28-4.99995E-06-3.48654E-21-1.27047E-20-2.33811E-21-3.62186E-21-5.57137E-21
 -1        29-4.99995E-06-1.51149E-20-9.58207E-21 1.41544E-20-3.63301E-21 4.17504E-21
 -1        30-4.99995E-06-1.36323E-20-6.00272E-21 6.28439E-21-3.03304E-21 9.37140E-21
 -1        31-4.99995E-06-7.13125E-21-4.29843E-21 2.27866E-21-2.05673E-21 1.72711E-20
 -1        32-4.99995E-06-2.34709E-20-3.71137E-21 1.85379E-22 1.77496E-21 3.13548E-22
 -1        33-4.99995E-06 1.12585E-22 1.94442E-21 5.29736E-21 3.00859E-21 2.14974E-21
 -1        34-4.99995E-06-1.63530E-21-1.19412E-22 8.61788E-21-1.00344E-21 9.37665E-21
 -1        35-4.99995E-06-3.53126E-21-2.79997E-21 7.04220E-22-5.41025E-21-6.58096E-21
 -1        36-4.99995E-06-3.05495E-22-8.02498E-22 2.51262E-21 1.11191E-21-5.31206E-21
 -1        37-4.99995E-06-1.35099E-21-2.96964E-22-6.38850E-21 1.01766E-21-2.60577E-21
 -1        38-4.99995E-06 4.97510E-22 8.74834E-22-1.58798E-21 8.45574E-22 7.77437E-21
 -1        39-4.99995E-06 2.04163E-21-1.07489E-21-1.02524E-21-2.04012E-21-2.16471E-21
 -1        40-4.99995E-06 2.72031E-21-3.04146E-21-1.26064E-20 7.20151E-22 3.57821E-21
 -1        41-4.99995E-06-5.52400E-21-5.79135E-21 5.52774E-22 4.12689E-21 2.16776E-21
 -1        42-4.99995E-06-2.10277E-21 2.33871E-21 6.51046E-21 6.56464E-22 1.38925E-21
 -1        43-4.99995E-06-6.47717E-22-1.30622E-21 3.61814E-22-1.34517E-21-5.40114E-21
 -1        44-4.99995E-06-8.90121E-21 2.86438E-22 1.09355E-20-3.51889E-21 9.04460E-21
 -1        45-4.99995E-06 5.30451E-23 7.52397E-23-2.68067E-21 3.39389E-22-7.43230E-22
 -1        46-4.99995E-06-5.44311E-22-6.79763E-23-2.06490E-21 5.79750E-22 8.30125E-22
 -1        47-4.99995E-06-1.23957E-21-5.18433E-22-2.88487E-21-1.84651E-22-1.20457E-21
 -1        48-4.99995E-06-4.34173E-22 5.55573E-22-7.63828E-22 1.29619E-22 1.81455E-22
 -1        49-4.99995E-06 3.82743E-22 6.10753E-22-3.22692E-21 4.96749E-22-2.23943E-21
 -1        50-4.99995E-06 8.52301E-23-2.25856E-22-1.93561E-22-7.03185E-23-1.78877E-21
 -1        51-4.99995E-06 1.36447E-27 2.24874E-27-2.67223E-22-1.67679E-27-7.62627E-23
 -1        52-4.99995E-06 6.31956E-27 2.88165E-22-2.03617E-21 5.41487E-22 4.95269E-22
 -1        53-4.99995E-06-4.08503E-22 3.20117E-22-2.23176E-21-4.41978E-23-2.98371E-22
 -1        54-4.99995E-06-4.49535E-22 1.94015E-23-5.04020E-21-2.15072E-22-2.11050E-21
 -1        55-4.99995E-06-4.46602E-22-4.50813E-22-2.84493E-21 4.48709E-22 7.98629E-24
 -1        56-4.99995E-06 1.37420E-22-3.97090E-22-3.09759E-21 1.29823E-22-1.57791E-21
 -1        57-4.99995E-06-7.82498E-22-1.87914E-22-5.87451E-21-4.85207E-22-1.11810E-21
 -1        58-4.99995E-06 3.94273E-22-2.67432E-27-2.38166E-21-2.62445E-22-7.28258E-23
 -1        59-4.99995E-06-2.23282E-27-1.22405E-27-2.59194E-21 1.66662E-27-1.49292E-21
 -1        60-4.99995E-06 9.69591E-23 7.36236E-22-4.71688E-21 4.16593E-22-2.88693E-21
 -1        61-4.99995E-06 2.10842E-22 1.93045E-22-3.29638E-21 2.01950E-22-1.27412E-21
 -1        62-4.99995E-06-6.15176E-22-3.85739E-22-7.30943E-22 5.00445E-22 1.80395E-21
 -1        63-4.99995E-06 3.30922E-27-6.94066E-27-1.12963E-21-3.44155E-27 9.64104E-22
 -1        64-4.99995E-06-3.67445E-22-1.23094E-22-1.78295E-21-2.45267E-22 2.35707E-23
 -1        65-4.99995E-06-4.75963E-22 2.68485E-22-2.01729E-21 1.03738E-22 7.91345E-22
 -1        66-4.99995E-06 2.04184E-27-5.55426E-27-1.89588E-21-1.27082E-27 4.32966E-25
 -1        67-4.99995E-06-5.67482E-27 7.12706E-22-1.95857E-21-1.24668E-22-2.61671E-21
 -1        68-4.99995E-06 1.61033E-22 5.31643E-22-1.11678E-21 3.46339E-22 1.02520E-21
 -1        69-4.99995E-06-3.73621E-27 1.20037E-26-8.58617E-22 2.13204E-27-1.44007E-21
 -1        70-4.99995E-06-2.34013E-21-6.56204E-21-1.17174E-20-7.77271E-21-7.71777E-21
 -1        71-4.99995E-06 1.52619E-20-5.60832E-21-5.17212E-21-9.23052E-21-9.99873E-21
 -1        72-4.99995E-06-1.33270E-20-1.19566E-20-5.08809E-21-1.02323E-20 6.37025E-21
 -1        73-4.99995E-06-7.25787E-21-2.74718E-21-2.65930E-21-4.13182E-22 1.21759E-20
 -1        74-4.99995E-06 3.25547E-21 5.56264E-21 2.12280E-21-5.41930E-21 1.55565E-20
 -1        75-4.99995E-06-1.43697E-20-9.49877E-21-2.82371E-21-1.81934E-21 5.86126E-21
 -1        76-4.99995E-06-2.01996E-20-9.46384E-21 3.80369E-22-7.68284E-21-1.49725E-21
 -1        77-4.99995E-06-9.42966E-21-1.07351E-20 1.13034E-21-1.31422E-20 1.62685E-21
 -1        78-4.99995E-06-9.73688E-21-1.22502E-20-2.33904E-21-8.26805E-21 3.61582E-21
 -1        79-4.99995E-06-9.28683E-21-9.63488E-21-3.40678E-21-1.06773E-20-2.74529E-22
 -1        80-4.99995E-06-4.40455E-21-1.29359E-20 2.53376E-21-7.42488E-21-8.38777E-21
 -1        81-4.99995E-06 1.83365E-21-6.12600E-21-5.31830E-21 2.23868E-21 8.10649E-21
 -1        82-4.99995E-06-1.59930E-20-9.15544E-21 5.35925E-21 6.31978E-21-3.32278E-21
 -1        83-4.99995E-06-5.64646E-21-1.05147E-20-2.79132E-21-3.53887E-21 8.80383E-21
 -1        84-4.99995E-06-3.55989E-21-4.41032E-21 3.30127E-21-5.06041E-21-4.76674E-21
 -1        85-4.99995E-06-5.89592E-21-2.66814E-21-4.42890E-21-5.39212E-23-2.68517E-21
 -1        86-4.99995E-06-6.76228E-21 1.46702E-22 2.30918E-21 1.11355E-21 3.50838E-21
 -1        87-4.99995E-06-3.89564E-21-1.35797E-21-6.29951E-21-8.20152E-21-9.22432E-22
 -1        88-4.99995E-06 8.25786E-21 8.76289E-21 4.04336E-21-7.89808E-21 1.01339E-20
 -1        89-4.99995E-06 5.17124E-22 2.73619E-21-1.31156E-20-8.39540E-21 3.14401E-21
 -1        90-4.99995E-06 8.16113E-21-1.72893E-21-9.61043E-21-8.22495E-21-4.60015E-21
 -1        91-4.99995E-06-4.68729E-21-1.08663E-20 6.04697E-21-1.39955E-20 1.61481E-21
 -1        92-4.99995E-06 7.01237E-21-7.80503E-21-4.86035E-21 7.32494E-22 4.18950E-21
 -1        93-4.99995E-06 1.51670E-21-6.81594E-21-1.42063E-20-8.85748E-21-6.35873E-21
 -1        94-4.99995E-06 1.88400E-20 2.78468E-21 3.47525E-21-4.76841E-21-8.50306E-21
 -1        95-4.99995E-06 1.55551E-21 2.18507E-21-3.55513E-21 6.42724E-22-1.35334E-21
 -1        96-4.99995E-06-2.66868E-21 9.32893E-21 1.70144E-20-2.12475E-21-1.23404E-21
 -1        97-4.99995E-06 1.59728E-21 6.22773E-21-4.68345E-21 6.33021E-21 1.44548E-21
 -1        98-4.99995E-06 2.06985E-22-7.56311E-23 2.98119E-21 1.92256E-22-3.01995E-21
 -1        99-4.99995E-06 2.84856E-21-8.68581E-22 9.95511E-22 2.09563E-21-2.75122E-21
 -1       100-4.99995E-06-4.09761E-22-4.97250E-22 6.80483E-22 1.86242E-22-6.62959E-22
 -1       101-4.99995E-06-5.74116E-22-3.58682E-23-5.65108E-21-6.86160E-22-8.48464E-22
 -1       102-4.99995E-06-8.47445E-22 2.70489E-22 8.25103E-22 6.15594E-22-4.08133E-21
 -1       103-4.99995E-06 1.89052E-21 9.85707E-23 6.62394E-22 5.80949E-22 1.47435E-21
 -1       104-4.99995E-06 2.15724E-21 5.45372E-22-2.18935E-21 2.77245E-22-2.07628E-21
 -1       105-4.99995E-06-2.72449E-22-6.07668E-22 1.54675E-21 4.31453E-22 1.30992E-21
 -1       106-4.99995E-06 1.06613E-21-6.28594E-22-2.95333E-21 5.47354E-22-2.28664E-21
 -1       107-4.99995E-06-9.69773E-22 7.06134E-21 7.30444E-21 8.11524E-23-5.34413E-22
 -1       108-4.99995E-06 3.99706E-21 4.32292E-21 1.43179E-20-4.62896E-21-1.80810E-21
 -1       109-4.99995E-06-5.00369E-22 1.44844E-21-7.28734E-22 9.91013E-22-4.33369E-21
 -1       110-4.99995E-06 1.26306E-21 2.48639E-21 4.11321E-21-1.36322E-21-4.22965E-21
 -1       111-4.99995E-06 4.56237E-21 8.56595E-21 1.73421E-20-1.26032E-21-4.39964E-21
 -1       112-4.99995E-06-4.96499E-21 1.17563E-21 7.73995E-21 3.76976E-21 1.01276E-20
 -1       113-4.99995E-06 5.70374E-22 3.25195E-21-3.93274E-21 2.73206E-21-7.88783E-21
 -1       114-4.99995E-06 1.37124E-21 8.61549E-21 7.28049E-21 1.07519E-22-7.50994E-21
 -1       115-4.99995E-06 1.22719E-21 5.73825E-22-4.41416E-21 1.40190E-22 3.95108E-22
 -1       116-4.99995E-06 1.34411E-21 2.62325E-21 6.34040E-22 5.09060E-21 3.48832E-21
 -1       117-4.99995E-06-3.22522E-22-5.07411E-22-6.96284E-21-1.97348E-21-6.95631E-22
 -1       118-4.99995E-06 2.55593E-22 9.43336E-22 4.38114E-21 7.96549E-22 2.31880E-22
 -1       119-4.99995E-06 4.02515E-22-1.47413E-22-1.61310E-21 2.37784E-21-3.82632E-21
 -1       120-4.99995E-06 5.02363E-23 2.87362E-21 1.31150E-21 1.49385E-21-1.30826E-21
 -1       121-4.99995E-06 3.84545E-21 1.42949E-21 2.16637E-21-2.72102E-21 6.89956E-22
 -1       122-4.99995E-06 2.65508E-21-1.45482E-21 6.68954E-21-8.28391E-23 4.51612E-21
 -1       123-4.99995E-06 4.14272E-21-5.33975E-22 1.04565E-20 2.64693E-21 1.09118E-20
 -1       124-4.99995E-06-6.91551E-23-1.23706E-21-2.93882E-21 1.07716E-21 2.76071E-21
 -1       125-4.99995E-06-1.35651E-22-2.45726E-22 1.43965E-21 1.26668E-21 3.82014E-21
 -1       126-4.99995E-06 2.10173E-21 1.80563E-21 4.19126E-21 3.54678E-21 7.56037E-21
 -1       127-4.99995E-06 8.14539E-22-1.07416E-21 6.05593E-21-1.09980E-22-3.89159E-22
 -1       128-4.99995E-06-5.81947E-21-5.64819E-21 9.89103E-21-2.56231E-21 8.59711E-22
 -1       129-4.99995E-06-5.60040E-22-9.64784E-22 7.07906E-21-6.51762E-22 1.02306E-21
 -1       130-4.99995E-06-2.04077E-22-5.62414E-22-5.70763E-21 9.71840E-22 1.65543E-21
 -1       131-4.99995E-06-2.11845E-22-1.39300E-21-3.92714E-21 5.95035E-22 2.98513E-21
 -1       132-4.99995E-06 4.46830E-21 2.26351E-21 4.60900E-21-4.35670E-21-6.54292E-21
 -1       133-4.99995E-06-1.74248E-21 2.79098E-21 2.92526E-23-3.82496E-22-9.15755E-22
 -1       134-4.99995E-06 2.31292E-21 3.70825E-21-5.11850E-23-1.39979E-21 6.79767E-21
 -1       135-4.99995E-06-4.47715E-21-3.25941E-21 1.03538E-20 2.59779E-21-8.42427E-21
 -1       136-4.99995E-06 2.39600E-22-6.86132E-21 3.22747E-21-3.44233E-21 3.03386E-21
 -1       137-4.99995E-06-5.22522E-22 2.09589E-21 8.47379E-21-7.46214E-22-6.29789E-21
 -1       138-4.99995E-06 6.57203E-22-7.32333E-22 3.19977E-22-1.24271E-21-3.22015E-21
 -1       139-4.99995E-06 6.06014E-23 2.77119E-22-4.65990E-21-1.28774E-21-1.09123E-20
 -1       140-4.99995E-06 1.23808E-21 2.08232E-21 8.74777E-21 5.65244E-22-3.08386E-22
 -1       141-4.99995E-06 3.94634E-22-8.21215E-22-4.25771E-21 1.24411E-21 2.13437E-21
 -1       142-4.99995E-06 2.70110E-21-1.45873E-21 5.72069E-21 3.81197E-23 3.91370E-21
 -1       143-4.99995E-06 4.44087E-23-3.43401E-21 9.62568E-21-2.58040E-21 1.39269E-20
 -1       144-4.99995E-06 1.47651E-22 8.92111E-22-3.64983E-21-4.68369E-22-7.21495E-22
 -1       145-4.99995E-06 2.07973E-21 4.23418E-21-7.50661E-21 5.53905E-22-2.79618E-21
 -1       146-4.99995E-06 9.38276E-22 1.81816E-22-4.84502E-21-1.67781E-22-4.43765E-21
 -1       147-4.99995E-06 5.09513E-21 6.77960E-22-1.10508E-20-7.79979E-22-1.03674E-20
 -1       148-4.99995E-06 3.54807E-21 5.93140E-22-5.32759E-21 2.23907E-21 5.20158E-21
 -1       149-4.99995E-06-1.59935E-21 1.01501E-22-7.66764E-21 1.11953E-22 5.26244E-21
 -1       150-4.99995E-06-5.90166E-22 4.94765E-22-4.64030E-21-4.20787E-22-1.39464E-21
 -1       151-4.99995E-06-1.22684E-21-1.98303E-22-5.55248E-21 5.57032E-22 3.27523E-21
 -1       152-4.99995E-06 2.27081E-21-1.60399E-22-9.51557E-21 1.22974E-21-1.44120E-21
 -1       153-4.99995E-06 1.88332E-21 3.76474E-22-2.91346E-22 5.68703E-23-3.04507E-22
 -1       154-4.99995E-06 1.94405E-21 1.71985E-21-3.35254E-21 2.45758E-21-1.65049E-21
 -1       155-4.99995E-06 1.95131E-21 2.85770E-22-7.91876E-21 6.58812E-22 8.40718E-21
 -1       156-4.99995E-06-6.06845E-23 8.43104E-22-7.68906E-21-2.73682E-22-6.16772E-21
 -1       157-4.99995E-06-2.06632E-21 1.17155E-21-3.72546E-21-1.00002E-21 5.20784E-21
 -1       158-4.99995E-06 1.08030E-21-1.23435E-21-4.36119E-21-1.22794E-21-3.18357E-21
 -1       159-4.99995E-06 1.07293E-21 6.47205E-22-2.26218E-21 9.57076E-22-5.96021E-21
 -1       160-4.99995E-06 7.12515E-21 2.32834E-21-3.37814E-21-2.25695E-21-9.22197E-21
 -1       161-4.99995E-06 6.49387E-22 2.13596E-21-8.90934E-21 8.23409E-22-1.41549E-20
 -1       162-4.99995E-06-6.76066E-21-1.25179E-21 3.79674E-21 1.83049E-21-1.30838E-20
 -1       163-4.99995E-06 3.65400E-21-2.82362E-21-2.90671E-21 2.56984E-22-1.02019E-21
 -1       164-4.99995E-06-1.78431E-21 5.53241E-22-3.61303E-21-1.37473E-21-3.55115E-21
 -1       165-4.99995E-06-5.35433E-21-1.59667E-21-2.95071E-21 2.33985E-21-8.49340E-22
 -1       166-4.99995E-06 1.59855E-21 1.82516E-21-7.64240E-21-1.21103E-21 2.44980E-21
 -1       167-4.99995E-06 3.65139E-21 1.25805E-21-2.42716E-21 4.60119E-21 1.05487E-21
 -1       168-4.99995E-06 1.67948E-21 1.46428E-21-5.98269E-21-3.93122E-22 1.81523E-22
 -1       169-4.99995E-06-2.45624E-21-1.29092E-21-9.47535E-21-4.73307E-21-8.65107E-21
 -1       170-4.99995E-06 2.21827E-21 1.93460E-21 5.33882E-21 1.37144E-21 3.75729E-21
 -1       171-4.99995E-06 4.15682E-21 1.42309E-21 1.37670E-21 1.77134E-22-7.69031E-21
 -1       172-4.99995E-06-2.15336E-21 6.19777E-21 5.14239E-21-3.20131E-22-2.89834E-22
 -1       173-4.99995E-06 1.51557E-21-1.17118E-22-3.40493E-21-1.72108E-21 6.27281E-21
 -1       174-4.99995E-06 7.29247E-22-6.61371E-22 1.26481E-20 8.34354E-22-7.06178E-21
 -1       175-4.99995E-06 8.52526E-22 1.99615E-22-8.53267E-22-4.65519E-22-2.37218E-22
 -1       176-4.99995E-06 2.44660E-21-1.58255E-22-4.02719E-21-6.14520E-22 4.57408E-21
 -1       177-4.99995E-06-4.82633E-22-6.55367E-22-4.19945E-22-8.31017E-25 4.83533E-21
 -1       178-4.99995E-06-2.34555E-22 3.82536E-22-6.69877E-22 1.65440E-21 7.19499E-21
 -1       179-4.99995E-06 2.77057E-21 3.91882E-21 5.10245E-21 3.48482E-21 1.39516E-21
 -1       180-4.99995E-06-8.95667E-21-1.47145E-21 5.99004E-21-2.91417E-21-3.98435E-21
 -1       181-4.99995E-06 3.22968E-21 1.19209E-21-3.46138E-21-1.81460E-21-3.49567E-21
 -1       182-4.99995E-06 5.27947E-22 2.06786E-22 4.54701E-21 8.49483E-23-4.28246E-21
 -1       183-4.99995E-06-1.34974E-21 5.18862E-21 1.22457E-20 1.14063E-22 4.45672E-21
 -1       184-4.99995E-06-6.00871E-22-1.98327E-21 9.41001E-21 1.26979E-21-5.13551E-21
 -1       185-4.99995E-06-4.01715E-21-9.02519E-22-4.27838E-21 4.99814E-21 6.93824E-21
 -1       186-4.99995E-06-6.63794E-21-5.20046E-22 1.54095E-20-4.19227E-21 1.30663E-20
 -1       187-4.99995E-06-3.10598E-21 4.16485E-21-3.49184E-22 1.67617E-22 5.67640E-21
 -1       188-4.99995E-06-2.45592E-21 1.09917E-23-1.07970E-21-1.23820E-22 4.04081E-21
 -1       189-4.99995E-06 1.30123E-22-1.16754E-22 3.42552E-21 2.10585E-21 3.13976E-21
 -1       190-4.99995E-06-1.09650E-21 5.46546E-22 5.53377E-21 1.62468E-21-2.92050E-21
 -1       191-4.99995E-06 9.31784E-22-8.97220E-22 1.16013E-20 9.71424E-22-1.83756E-21
 -1       192-4.99995E-06 4.00883E-22-1.40501E-21 4.26135E-21 3.23344E-22-6.02811E-21
 -1       193-4.99995E-06 2.47504E-22-1.49720E-22 7.01176E-21 7.80109E-22-5.18839E-21
 -1       194-4.99995E-06-5.61411E-21 4.65523E-21-1.27918E-21 1.44526E-21-1.54839E-21
 -1       195-4.99995E-06 8.17411E-22 7.79020E-22-2.17772E-21 1.51144E-21 2.40469E-21
 -1       196-4.99995E-06-8.20025E-22-1.07704E-22-9.58260E-21-7.11884E-22 4.89347E-22
 -1       197-4.99995E-06-1.28180E-21-3.03048E-22-3.15160E-22-3.07270E-22-1.58833E-21
 -1       198-4.99995E-06 1.44135E-22 1.00669E-21-1.41647E-21 6.27802E-22 2.21333E-22
 -1       199-4.99995E-06 1.27976E-22-3.80955E-22-1.67734E-21 6.77163E-22-3.93960E-21
 -1       200-4.99995E-06 2.04608E-22 7.06804E-22-3.72394E-21 1.94184E-22-4.63738E-21
 -1       201-4.99995E-06-5.31342E-22 3.83392E-22-4.97449E-21 5.46791E-22-3.28489E-21
 -1       202-4.99995E-06 3.08102E-21 3.48255E-21-1.34039E-21-3.28030E-22-3.37129E-21
 -1       203-4.99995E-06 5.30265E-21 1.36535E-21-3.81452E-21-1.64778E-21-7.22073E-21
 -1       204-4.99995E-06 1.72532E-21 1.14255E-21-4.06468E-21-2.92423E-22 7.12617E-21
 -1       205-4.99995E-06 4.44994E-22-9.17188E-22-7.23771E-21-4.81257E-22 7.19873E-22
 -1       206-4.99995E-06 6.81491E-22 3.16102E-21-9.92460E-21-8.94845E-22 2.95278E-21
 -1       207-4.99995E-06-5.74301E-22-4.35145E-21-1.68935E-21-2.22266E-21-3.84532E-21
 -1       208-4.99995E-06-2.72562E-21-3.54142E-22 8.29035E-22-1.20081E-21 5.79721E-21
 -1       209-4.99995E-06-2.06313E-21-1.88301E-21-5.97130E-21-3.39458E-21 6.99371E-21
 -1       210-4.99995E-06-4.83347E-21-4.69515E-21-3.33795E-21-3.98352E-21 1.04444E-21
 -1       211-4.99995E-06-6.51107E-22 3.39526E-22-5.33677E-21-4.92959E-21-1.87362E-21
 -1       212-4.99995E-06 4.47404E-21-1.13563E-21 1.83491E-21-6.29197E-21-4.38231E-21
 -1       213-4.99995E-06 2.20395E-21-1.26901E-21 6.63264E-21 1.84940E-21-2.47747E-21
 -1       214-4.99995E-06 2.30104E-21-4.41911E-22 6.10247E-21 1.38749E-21-6.37163E-21
 -1       215-4.99995E-06-1.31204E-21-5.25736E-22-3.44382E-21 2.74178E-23 2.95673E-21
 -1       216-4.99995E-06 1.73718E-21 1.14621E-21-7.01566E-21 5.66667E-22-2.58159E-21
 -1       217-4.99995E-06-8.21774E-22-2.46744E-21 5.31420E-21-3.72239E-21 5.76654E-21
 -1       218-4.99995E-06-2.33135E-21-4.31892E-21 7.16589E-21-4.67254E-21 9.10312E-21
 -1       219-4.99995E-06 8.38418E-22 6.03357E-22 9.30603E-22-1.94258E-21-6.90095E-21
 -1       220-4.99995E-06 1.08701E-21 1.72295E-21-3.40199E-21 5.14159E-22 1.99261E-21
 -1       221-4.99995E-06 1.22274E-22-7.98939E-22-1.62785E-20-3.94436E-21-5.96309E-21
 -1       222-4.99995E-06 2.34423E-21 9.90669E-22-4.65823E-21-2.08602E-21 3.81112E-21
 -1       223-4.99995E-06-2.38157E-21 5.19201E-21-5.56031E-21-7.50299E-22-4.49036E-21
 -1       224-4.99995E-06-1.85019E-21 1.45449E-21 5.95111E-22 5.20310E-23 2.14834E-21
 -1       225-4.99995E-06 1.23083E-21 1.59636E-21 1.80559E-21 5.18176E-22 1.85683E-21
 -1       226-4.99995E-06 2.02949E-21-3.53575E-22 4.56362E-22 2.18888E-21 2.31399E-21
 -1       227-4.99995E-06 1.60248E-21 1.33706E-21-3.53189E-21 6.14027E-22 2.66465E-21
 -1       228-4.99995E-06 1.40454E-21 3.01225E-22 1.29029E-21 1.28579E-21 5.08687E-21
 -1       229-4.99995E-06 1.03641E-21 1.89602E-21-4.51132E-21 6.37387E-22-1.61700E-21
 -1       230-4.99995E-06 7.40992E-22 3.52888E-22-6.61742E-21 6.87514E-22-2.65803E-21
 -1       231-4.99995E-06 3.02100E-21-7.23586E-22 9.76199E-22 3.25422E-21 5.75149E-21
 -1       232-4.99995E-06 2.32394E-21-1.54693E-21-3.16956E-21-1.07622E-21 1.10066E-21
 -1       233-4.99995E-06 8.27672E-22 3.01310E-22-7.82133E-22 2.22214E-21-1.82403E-21
 -1       234-4.99995E-06 7.71600E-22 5.55767E-22-3.11537E-21 3.22939E-22-7.16658E-22
 -1       235-4.99995E-06-1.81507E-22 4.66062E-21-9.92439E-22 1.59613E-21 7.37494E-22
 -1       236-4.99995E-06 1.21036E-21 3.45432E-21-7.85859E-22 1.08994E-21-1.10375E-21
 -1       237-4.99995E-06 9.27299E-23 8.33325E-22-1.78577E-21 8.52604E-22 3.94888E-22
 -1       238-4.99995E-06-9.75304E-24 9.52369E-22-3.25390E-21 1.03597E-21-1.17896E-21
 -1       239-4.99995E-06 6.19151E-22 1.42628E-21 2.66601E-22-6.99178E-22 7.37972E-21
 -1       240-4.99995E-06-1.65670E-21-2.60564E-21-7.24974E-21-1.06184E-21 4.40734E-21
 -1       241-4.99995E-06 3.68756E-21 1.94423E-21-5.45417E-21-2.26241E-21 1.05106E-20
 -1       242-4.99995E-06 2.00232E-21-1.36740E-21-9.06070E-21-8.11741E-22 7.25230E-21
 -1       243-4.99995E-06 1.78456E-21 7.36469E-21-3.53003E-21-2.53352E-22 8.63413E-21
 -1       244-4.99995E-06 1.40145E-21-4.97669E-23 3.27548E-21-2.01077E-21 6.54531E-22
 -1       245-4.99995E-06-1.28270E-21 1.95558E-21-4.65922E-21 1.88491E-21-8.46422E-22
 -1       246-4.99995E-06 4.03685E-21 2.95956E-21-9.14103E-21 4.24173E-21 7.22924E-21
 -1       247-4.99995E-06-1.08625E-21 3.66068E-22-1.83340E-21 9.53354E-22 3.13244E-22
 -1       248-4.99995E-06 2.85301E-21-1.20791E-21-2.23617E-21-3.33724E-22 4.89186E-21
 -1       249-4.99995E-06 8.06421E-22-4.39899E-22-2.95532E-21 1.20682E-21 1.53627E-21
 -1       250-4.99995E-06 8.08273E-24-2.77229E-23-5.33445E-21-8.03452E-22 4.04568E-21
 -1       251-4.99995E-06-1.80417E-22-6.17142E-22 2.22359E-22 5.16975E-22-5.47754E-22
 -1       252-4.99995E-06-3.28547E-22-1.20467E-22-1.93174E-21 5.76757E-22-4.34277E-22
 -1       253-4.99995E-06 3.63358E-22 1.08340E-21-3.00300E-21-1.30016E-22-8.29699E-22
 -1       254-4.99995E-06-2.47073E-22 1.03265E-21-2.51458E-21 3.07702E-22 1.19692E-21
 -1       255-4.99995E-06 5.52574E-22 3.57132E-22 2.99390E-22-1.14148E-21 3.66462E-21
 -1       256-4.99995E-06-1.02038E-21 9.38023E-22-3.45464E-21 9.32522E-22 2.94561E-21
 -1       257-4.99995E-06 1.52727E-21 2.78640E-22 1.97007E-21 4.13999E-22 1.33737E-21
 -1       258-4.99995E-06-4.57418E-21 4.34109E-21 2.99485E-21-1.78532E-21-1.50741E-21
 -1       259-4.99995E-06-4.31260E-22 8.44807E-22-1.85092E-21 1.19536E-21 2.14251E-21
 -1       260-4.99995E-06 1.59706E-21-1.23515E-21-6.87557E-22 5.46533E-22 2.68323E-21
 -1       261-4.99995E-06 4.35116E-22 5.16349E-22-4.02342E-21-1.44308E-22-3.19980E-21
 -1       262-4.99995E-06-2.94105E-22-1.51331E-21-7.64941E-21-1.68094E-21 2.83109E-21
 -1       263-4.99995E-06-3.07193E-21 6.45526E-21 5.62323E-21-2.19004E-21-3.96330E-21
 -1       264-4.99995E-06 3.64849E-23-3.92617E-22 5.59176E-21 9.59631E-22-3.87485E-21
 -1       265-4.99995E-06-1.31874E-21 1.93704E-22-3.84882E-21 1.61138E-22-9.27164E-22
 -1       266-4.99995E-06 1.17680E-21-2.76257E-22 5.48216E-22 1.34496E-21-9.51708E-22
 -1       267-4.99995E-06 6.02024E-21-2.83637E-21 6.80870E-21 1.87970E-21-1.27924E-21
 -1       268-4.99995E-06 1.39014E-21-3.20666E-22-1.09644E-21-2.64362E-22-6.01917E-22
 -1       269-4.99995E-06 6.89429E-21 4.61607E-21 5.63785E-21-3.01665E-21-7.59562E-21
 -1       270-4.99995E-06-2.26739E-22-4.48888E-21-6.08104E-21-1.43456E-21-5.94163E-21
 -1       271-4.99995E-06 6.14020E-22 8.18133E-23-2.03044E-21 1.97052E-22-1.97383E-21
 -1       272-4.99995E-06 6.66776E-22 3.95236E-22-5.39944E-21 7.78531E-22-2.91946E-21
 -1       273-4.99995E-06 1.98842E-21 2.31815E-21-5.66188E-21-1.10987E-22-2.68017E-21
 -1       274-4.99995E-06-1.40148E-21 5.52346E-21 7.34620E-22 2.17212E-22 6.36197E-23
 -1       275-4.99995E-06-1.91070E-21 1.34846E-21-6.88582E-21-6.04755E-21-3.61562E-21
 -1       276-4.99995E-06 7.47569E-22-2.15988E-22-8.43307E-22 1.39588E-21 8.32414E-22
 -1       277-4.99995E-06 4.77152E-21-1.62060E-22 4.91298E-21 2.41161E-21 4.56722E-21
 -1       278-4.99995E-06-8.95065E-22 2.60405E-21-1.87553E-21 8.49813E-22 1.73557E-22
 -1       279-4.99995E-06-4.27020E-22-6.20328E-22 2.05943E-21 2.01834E-21 3.20080E-21
 -1       280-4.99995E-06 2.01357E-21-1.08998E-21 1.17281E-21-2.74668E-22 5.16414E-22
 -3
 9999
